*SPEF "ieee 1481-1999"
*DESIGN "user_project_wrapper"
*DATE "05:35:47 Saturday September 05, 2026"
*VENDOR "The OpenROAD Project"
*PROGRAM "OpenROAD"
*VERSION "edf00dff99f6c40d67a30c0e22a8191c5d2ed9d6"
*DESIGN_FLOW "NAME_SCOPE LOCAL" "PIN_CAP NONE"
*DIVIDER /
*DELIMITER :
*BUS_DELIMITER []
*T_UNIT 1 NS
*C_UNIT 1 PF
*R_UNIT 1 OHM
*L_UNIT 1 HENRY

*NAME_MAP
*1 analog_io[0]
*2 analog_io[10]
*3 analog_io[11]
*4 analog_io[12]
*5 analog_io[13]
*6 analog_io[14]
*7 analog_io[15]
*8 analog_io[16]
*9 analog_io[17]
*10 analog_io[18]
*11 analog_io[19]
*12 analog_io[1]
*13 analog_io[20]
*14 analog_io[21]
*15 analog_io[22]
*16 analog_io[23]
*17 analog_io[24]
*18 analog_io[25]
*19 analog_io[26]
*20 analog_io[27]
*21 analog_io[28]
*22 analog_io[2]
*23 analog_io[3]
*24 analog_io[4]
*25 analog_io[5]
*26 analog_io[6]
*27 analog_io[7]
*28 analog_io[8]
*29 analog_io[9]
*30 io_in[0]
*31 io_in[10]
*32 io_in[11]
*33 io_in[12]
*34 io_in[13]
*35 io_in[14]
*36 io_in[15]
*37 io_in[16]
*38 io_in[17]
*39 io_in[18]
*40 io_in[19]
*41 io_in[1]
*42 io_in[20]
*43 io_in[21]
*44 io_in[22]
*45 io_in[23]
*46 io_in[24]
*47 io_in[25]
*48 io_in[26]
*49 io_in[27]
*50 io_in[28]
*51 io_in[29]
*52 io_in[2]
*53 io_in[30]
*54 io_in[31]
*55 io_in[32]
*56 io_in[33]
*57 io_in[34]
*58 io_in[35]
*59 io_in[36]
*60 io_in[37]
*61 io_in[3]
*62 io_in[4]
*63 io_in[5]
*64 io_in[6]
*65 io_in[7]
*66 io_in[8]
*67 io_in[9]
*68 io_oeb[0]
*69 io_oeb[10]
*70 io_oeb[11]
*71 io_oeb[12]
*72 io_oeb[13]
*73 io_oeb[14]
*74 io_oeb[15]
*75 io_oeb[16]
*76 io_oeb[17]
*77 io_oeb[18]
*78 io_oeb[19]
*79 io_oeb[1]
*80 io_oeb[20]
*81 io_oeb[21]
*82 io_oeb[22]
*83 io_oeb[23]
*84 io_oeb[24]
*85 io_oeb[25]
*86 io_oeb[26]
*87 io_oeb[27]
*88 io_oeb[28]
*89 io_oeb[29]
*90 io_oeb[2]
*91 io_oeb[30]
*92 io_oeb[31]
*93 io_oeb[32]
*94 io_oeb[33]
*95 io_oeb[34]
*96 io_oeb[35]
*97 io_oeb[36]
*98 io_oeb[37]
*99 io_oeb[3]
*100 io_oeb[4]
*101 io_oeb[5]
*102 io_oeb[6]
*103 io_oeb[7]
*104 io_oeb[8]
*105 io_oeb[9]
*106 io_out[0]
*107 io_out[10]
*108 io_out[11]
*109 io_out[12]
*110 io_out[13]
*111 io_out[14]
*112 io_out[15]
*113 io_out[16]
*114 io_out[17]
*115 io_out[18]
*116 io_out[19]
*117 io_out[1]
*118 io_out[20]
*119 io_out[21]
*120 io_out[22]
*121 io_out[23]
*122 io_out[24]
*123 io_out[25]
*124 io_out[26]
*125 io_out[27]
*126 io_out[28]
*127 io_out[29]
*128 io_out[2]
*129 io_out[30]
*130 io_out[31]
*131 io_out[32]
*132 io_out[33]
*133 io_out[34]
*134 io_out[35]
*135 io_out[36]
*136 io_out[37]
*137 io_out[3]
*138 io_out[4]
*139 io_out[5]
*140 io_out[6]
*141 io_out[7]
*142 io_out[8]
*143 io_out[9]
*144 la_data_in[0]
*145 la_data_in[100]
*146 la_data_in[101]
*147 la_data_in[102]
*148 la_data_in[103]
*149 la_data_in[104]
*150 la_data_in[105]
*151 la_data_in[106]
*152 la_data_in[107]
*153 la_data_in[108]
*154 la_data_in[109]
*155 la_data_in[10]
*156 la_data_in[110]
*157 la_data_in[111]
*158 la_data_in[112]
*159 la_data_in[113]
*160 la_data_in[114]
*161 la_data_in[115]
*162 la_data_in[116]
*163 la_data_in[117]
*164 la_data_in[118]
*165 la_data_in[119]
*166 la_data_in[11]
*167 la_data_in[120]
*168 la_data_in[121]
*169 la_data_in[122]
*170 la_data_in[123]
*171 la_data_in[124]
*172 la_data_in[125]
*173 la_data_in[126]
*174 la_data_in[127]
*175 la_data_in[12]
*176 la_data_in[13]
*177 la_data_in[14]
*178 la_data_in[15]
*179 la_data_in[16]
*180 la_data_in[17]
*181 la_data_in[18]
*182 la_data_in[19]
*183 la_data_in[1]
*184 la_data_in[20]
*185 la_data_in[21]
*186 la_data_in[22]
*187 la_data_in[23]
*188 la_data_in[24]
*189 la_data_in[25]
*190 la_data_in[26]
*191 la_data_in[27]
*192 la_data_in[28]
*193 la_data_in[29]
*194 la_data_in[2]
*195 la_data_in[30]
*196 la_data_in[31]
*197 la_data_in[32]
*198 la_data_in[33]
*199 la_data_in[34]
*200 la_data_in[35]
*201 la_data_in[36]
*202 la_data_in[37]
*203 la_data_in[38]
*204 la_data_in[39]
*205 la_data_in[3]
*206 la_data_in[40]
*207 la_data_in[41]
*208 la_data_in[42]
*209 la_data_in[43]
*210 la_data_in[44]
*211 la_data_in[45]
*212 la_data_in[46]
*213 la_data_in[47]
*214 la_data_in[48]
*215 la_data_in[49]
*216 la_data_in[4]
*217 la_data_in[50]
*218 la_data_in[51]
*219 la_data_in[52]
*220 la_data_in[53]
*221 la_data_in[54]
*222 la_data_in[55]
*223 la_data_in[56]
*224 la_data_in[57]
*225 la_data_in[58]
*226 la_data_in[59]
*227 la_data_in[5]
*228 la_data_in[60]
*229 la_data_in[61]
*230 la_data_in[62]
*231 la_data_in[63]
*232 la_data_in[64]
*233 la_data_in[65]
*234 la_data_in[66]
*235 la_data_in[67]
*236 la_data_in[68]
*237 la_data_in[69]
*238 la_data_in[6]
*239 la_data_in[70]
*240 la_data_in[71]
*241 la_data_in[72]
*242 la_data_in[73]
*243 la_data_in[74]
*244 la_data_in[75]
*245 la_data_in[76]
*246 la_data_in[77]
*247 la_data_in[78]
*248 la_data_in[79]
*249 la_data_in[7]
*250 la_data_in[80]
*251 la_data_in[81]
*252 la_data_in[82]
*253 la_data_in[83]
*254 la_data_in[84]
*255 la_data_in[85]
*256 la_data_in[86]
*257 la_data_in[87]
*258 la_data_in[88]
*259 la_data_in[89]
*260 la_data_in[8]
*261 la_data_in[90]
*262 la_data_in[91]
*263 la_data_in[92]
*264 la_data_in[93]
*265 la_data_in[94]
*266 la_data_in[95]
*267 la_data_in[96]
*268 la_data_in[97]
*269 la_data_in[98]
*270 la_data_in[99]
*271 la_data_in[9]
*272 la_data_out[0]
*273 la_data_out[100]
*274 la_data_out[101]
*275 la_data_out[102]
*276 la_data_out[103]
*277 la_data_out[104]
*278 la_data_out[105]
*279 la_data_out[106]
*280 la_data_out[107]
*281 la_data_out[108]
*282 la_data_out[109]
*283 la_data_out[10]
*284 la_data_out[110]
*285 la_data_out[111]
*286 la_data_out[112]
*287 la_data_out[113]
*288 la_data_out[114]
*289 la_data_out[115]
*290 la_data_out[116]
*291 la_data_out[117]
*292 la_data_out[118]
*293 la_data_out[119]
*294 la_data_out[11]
*295 la_data_out[120]
*296 la_data_out[121]
*297 la_data_out[122]
*298 la_data_out[123]
*299 la_data_out[124]
*300 la_data_out[125]
*301 la_data_out[126]
*302 la_data_out[127]
*303 la_data_out[12]
*304 la_data_out[13]
*305 la_data_out[14]
*306 la_data_out[15]
*307 la_data_out[16]
*308 la_data_out[17]
*309 la_data_out[18]
*310 la_data_out[19]
*311 la_data_out[1]
*312 la_data_out[20]
*313 la_data_out[21]
*314 la_data_out[22]
*315 la_data_out[23]
*316 la_data_out[24]
*317 la_data_out[25]
*318 la_data_out[26]
*319 la_data_out[27]
*320 la_data_out[28]
*321 la_data_out[29]
*322 la_data_out[2]
*323 la_data_out[30]
*324 la_data_out[31]
*325 la_data_out[32]
*326 la_data_out[33]
*327 la_data_out[34]
*328 la_data_out[35]
*329 la_data_out[36]
*330 la_data_out[37]
*331 la_data_out[38]
*332 la_data_out[39]
*333 la_data_out[3]
*334 la_data_out[40]
*335 la_data_out[41]
*336 la_data_out[42]
*337 la_data_out[43]
*338 la_data_out[44]
*339 la_data_out[45]
*340 la_data_out[46]
*341 la_data_out[47]
*342 la_data_out[48]
*343 la_data_out[49]
*344 la_data_out[4]
*345 la_data_out[50]
*346 la_data_out[51]
*347 la_data_out[52]
*348 la_data_out[53]
*349 la_data_out[54]
*350 la_data_out[55]
*351 la_data_out[56]
*352 la_data_out[57]
*353 la_data_out[58]
*354 la_data_out[59]
*355 la_data_out[5]
*356 la_data_out[60]
*357 la_data_out[61]
*358 la_data_out[62]
*359 la_data_out[63]
*360 la_data_out[64]
*361 la_data_out[65]
*362 la_data_out[66]
*363 la_data_out[67]
*364 la_data_out[68]
*365 la_data_out[69]
*366 la_data_out[6]
*367 la_data_out[70]
*368 la_data_out[71]
*369 la_data_out[72]
*370 la_data_out[73]
*371 la_data_out[74]
*372 la_data_out[75]
*373 la_data_out[76]
*374 la_data_out[77]
*375 la_data_out[78]
*376 la_data_out[79]
*377 la_data_out[7]
*378 la_data_out[80]
*379 la_data_out[81]
*380 la_data_out[82]
*381 la_data_out[83]
*382 la_data_out[84]
*383 la_data_out[85]
*384 la_data_out[86]
*385 la_data_out[87]
*386 la_data_out[88]
*387 la_data_out[89]
*388 la_data_out[8]
*389 la_data_out[90]
*390 la_data_out[91]
*391 la_data_out[92]
*392 la_data_out[93]
*393 la_data_out[94]
*394 la_data_out[95]
*395 la_data_out[96]
*396 la_data_out[97]
*397 la_data_out[98]
*398 la_data_out[99]
*399 la_data_out[9]
*400 la_oenb[0]
*401 la_oenb[100]
*402 la_oenb[101]
*403 la_oenb[102]
*404 la_oenb[103]
*405 la_oenb[104]
*406 la_oenb[105]
*407 la_oenb[106]
*408 la_oenb[107]
*409 la_oenb[108]
*410 la_oenb[109]
*411 la_oenb[10]
*412 la_oenb[110]
*413 la_oenb[111]
*414 la_oenb[112]
*415 la_oenb[113]
*416 la_oenb[114]
*417 la_oenb[115]
*418 la_oenb[116]
*419 la_oenb[117]
*420 la_oenb[118]
*421 la_oenb[119]
*422 la_oenb[11]
*423 la_oenb[120]
*424 la_oenb[121]
*425 la_oenb[122]
*426 la_oenb[123]
*427 la_oenb[124]
*428 la_oenb[125]
*429 la_oenb[126]
*430 la_oenb[127]
*431 la_oenb[12]
*432 la_oenb[13]
*433 la_oenb[14]
*434 la_oenb[15]
*435 la_oenb[16]
*436 la_oenb[17]
*437 la_oenb[18]
*438 la_oenb[19]
*439 la_oenb[1]
*440 la_oenb[20]
*441 la_oenb[21]
*442 la_oenb[22]
*443 la_oenb[23]
*444 la_oenb[24]
*445 la_oenb[25]
*446 la_oenb[26]
*447 la_oenb[27]
*448 la_oenb[28]
*449 la_oenb[29]
*450 la_oenb[2]
*451 la_oenb[30]
*452 la_oenb[31]
*453 la_oenb[32]
*454 la_oenb[33]
*455 la_oenb[34]
*456 la_oenb[35]
*457 la_oenb[36]
*458 la_oenb[37]
*459 la_oenb[38]
*460 la_oenb[39]
*461 la_oenb[3]
*462 la_oenb[40]
*463 la_oenb[41]
*464 la_oenb[42]
*465 la_oenb[43]
*466 la_oenb[44]
*467 la_oenb[45]
*468 la_oenb[46]
*469 la_oenb[47]
*470 la_oenb[48]
*471 la_oenb[49]
*472 la_oenb[4]
*473 la_oenb[50]
*474 la_oenb[51]
*475 la_oenb[52]
*476 la_oenb[53]
*477 la_oenb[54]
*478 la_oenb[55]
*479 la_oenb[56]
*480 la_oenb[57]
*481 la_oenb[58]
*482 la_oenb[59]
*483 la_oenb[5]
*484 la_oenb[60]
*485 la_oenb[61]
*486 la_oenb[62]
*487 la_oenb[63]
*488 la_oenb[64]
*489 la_oenb[65]
*490 la_oenb[66]
*491 la_oenb[67]
*492 la_oenb[68]
*493 la_oenb[69]
*494 la_oenb[6]
*495 la_oenb[70]
*496 la_oenb[71]
*497 la_oenb[72]
*498 la_oenb[73]
*499 la_oenb[74]
*500 la_oenb[75]
*501 la_oenb[76]
*502 la_oenb[77]
*503 la_oenb[78]
*504 la_oenb[79]
*505 la_oenb[7]
*506 la_oenb[80]
*507 la_oenb[81]
*508 la_oenb[82]
*509 la_oenb[83]
*510 la_oenb[84]
*511 la_oenb[85]
*512 la_oenb[86]
*513 la_oenb[87]
*514 la_oenb[88]
*515 la_oenb[89]
*516 la_oenb[8]
*517 la_oenb[90]
*518 la_oenb[91]
*519 la_oenb[92]
*520 la_oenb[93]
*521 la_oenb[94]
*522 la_oenb[95]
*523 la_oenb[96]
*524 la_oenb[97]
*525 la_oenb[98]
*526 la_oenb[99]
*527 la_oenb[9]
*528 user_clock2
*529 user_irq[0]
*530 user_irq[1]
*531 user_irq[2]
*540 wb_clk_i
*541 wb_rst_i
*542 wbs_ack_o
*543 wbs_adr_i[0]
*544 wbs_adr_i[10]
*545 wbs_adr_i[11]
*546 wbs_adr_i[12]
*547 wbs_adr_i[13]
*548 wbs_adr_i[14]
*549 wbs_adr_i[15]
*550 wbs_adr_i[16]
*551 wbs_adr_i[17]
*552 wbs_adr_i[18]
*553 wbs_adr_i[19]
*554 wbs_adr_i[1]
*555 wbs_adr_i[20]
*556 wbs_adr_i[21]
*557 wbs_adr_i[22]
*558 wbs_adr_i[23]
*559 wbs_adr_i[24]
*560 wbs_adr_i[25]
*561 wbs_adr_i[26]
*562 wbs_adr_i[27]
*563 wbs_adr_i[28]
*564 wbs_adr_i[29]
*565 wbs_adr_i[2]
*566 wbs_adr_i[30]
*567 wbs_adr_i[31]
*568 wbs_adr_i[3]
*569 wbs_adr_i[4]
*570 wbs_adr_i[5]
*571 wbs_adr_i[6]
*572 wbs_adr_i[7]
*573 wbs_adr_i[8]
*574 wbs_adr_i[9]
*575 wbs_cyc_i
*576 wbs_dat_i[0]
*577 wbs_dat_i[10]
*578 wbs_dat_i[11]
*579 wbs_dat_i[12]
*580 wbs_dat_i[13]
*581 wbs_dat_i[14]
*582 wbs_dat_i[15]
*583 wbs_dat_i[16]
*584 wbs_dat_i[17]
*585 wbs_dat_i[18]
*586 wbs_dat_i[19]
*587 wbs_dat_i[1]
*588 wbs_dat_i[20]
*589 wbs_dat_i[21]
*590 wbs_dat_i[22]
*591 wbs_dat_i[23]
*592 wbs_dat_i[24]
*593 wbs_dat_i[25]
*594 wbs_dat_i[26]
*595 wbs_dat_i[27]
*596 wbs_dat_i[28]
*597 wbs_dat_i[29]
*598 wbs_dat_i[2]
*599 wbs_dat_i[30]
*600 wbs_dat_i[31]
*601 wbs_dat_i[3]
*602 wbs_dat_i[4]
*603 wbs_dat_i[5]
*604 wbs_dat_i[6]
*605 wbs_dat_i[7]
*606 wbs_dat_i[8]
*607 wbs_dat_i[9]
*608 wbs_dat_o[0]
*609 wbs_dat_o[10]
*610 wbs_dat_o[11]
*611 wbs_dat_o[12]
*612 wbs_dat_o[13]
*613 wbs_dat_o[14]
*614 wbs_dat_o[15]
*615 wbs_dat_o[16]
*616 wbs_dat_o[17]
*617 wbs_dat_o[18]
*618 wbs_dat_o[19]
*619 wbs_dat_o[1]
*620 wbs_dat_o[20]
*621 wbs_dat_o[21]
*622 wbs_dat_o[22]
*623 wbs_dat_o[23]
*624 wbs_dat_o[24]
*625 wbs_dat_o[25]
*626 wbs_dat_o[26]
*627 wbs_dat_o[27]
*628 wbs_dat_o[28]
*629 wbs_dat_o[29]
*630 wbs_dat_o[2]
*631 wbs_dat_o[30]
*632 wbs_dat_o[31]
*633 wbs_dat_o[3]
*634 wbs_dat_o[4]
*635 wbs_dat_o[5]
*636 wbs_dat_o[6]
*637 wbs_dat_o[7]
*638 wbs_dat_o[8]
*639 wbs_dat_o[9]
*640 wbs_sel_i[0]
*641 wbs_sel_i[1]
*642 wbs_sel_i[2]
*643 wbs_sel_i[3]
*644 wbs_stb_i
*645 wbs_we_i
*646 mprj

*PORTS
analog_io[0] I
analog_io[10] I
analog_io[11] I
analog_io[12] I
analog_io[13] I
analog_io[14] I
analog_io[15] I
analog_io[16] I
analog_io[17] I
analog_io[18] I
analog_io[19] I
analog_io[1] I
analog_io[20] I
analog_io[21] I
analog_io[22] I
analog_io[23] I
analog_io[24] I
analog_io[25] I
analog_io[26] I
analog_io[27] I
analog_io[28] I
analog_io[2] I
analog_io[3] I
analog_io[4] I
analog_io[5] I
analog_io[6] I
analog_io[7] I
analog_io[8] I
analog_io[9] I
io_in[0] I
io_in[10] I
io_in[11] I
io_in[12] I
io_in[13] I
io_in[14] I
io_in[15] I
io_in[16] I
io_in[17] I
io_in[18] I
io_in[19] I
io_in[1] I
io_in[20] I
io_in[21] I
io_in[22] I
io_in[23] I
io_in[24] I
io_in[25] I
io_in[26] I
io_in[27] I
io_in[28] I
io_in[29] I
io_in[2] I
io_in[30] I
io_in[31] I
io_in[32] I
io_in[33] I
io_in[34] I
io_in[35] I
io_in[36] I
io_in[37] I
io_in[3] I
io_in[4] I
io_in[5] I
io_in[6] I
io_in[7] I
io_in[8] I
io_in[9] I
io_oeb[0] O
io_oeb[10] O
io_oeb[11] O
io_oeb[12] O
io_oeb[13] O
io_oeb[14] O
io_oeb[15] O
io_oeb[16] O
io_oeb[17] O
io_oeb[18] O
io_oeb[19] O
io_oeb[1] O
io_oeb[20] O
io_oeb[21] O
io_oeb[22] O
io_oeb[23] O
io_oeb[24] O
io_oeb[25] O
io_oeb[26] O
io_oeb[27] O
io_oeb[28] O
io_oeb[29] O
io_oeb[2] O
io_oeb[30] O
io_oeb[31] O
io_oeb[32] O
io_oeb[33] O
io_oeb[34] O
io_oeb[35] O
io_oeb[36] O
io_oeb[37] O
io_oeb[3] O
io_oeb[4] O
io_oeb[5] O
io_oeb[6] O
io_oeb[7] O
io_oeb[8] O
io_oeb[9] O
io_out[0] O
io_out[10] O
io_out[11] O
io_out[12] O
io_out[13] O
io_out[14] O
io_out[15] O
io_out[16] O
io_out[17] O
io_out[18] O
io_out[19] O
io_out[1] O
io_out[20] O
io_out[21] O
io_out[22] O
io_out[23] O
io_out[24] O
io_out[25] O
io_out[26] O
io_out[27] O
io_out[28] O
io_out[29] O
io_out[2] O
io_out[30] O
io_out[31] O
io_out[32] O
io_out[33] O
io_out[34] O
io_out[35] O
io_out[36] O
io_out[37] O
io_out[3] O
io_out[4] O
io_out[5] O
io_out[6] O
io_out[7] O
io_out[8] O
io_out[9] O
la_data_in[0] I
la_data_in[100] I
la_data_in[101] I
la_data_in[102] I
la_data_in[103] I
la_data_in[104] I
la_data_in[105] I
la_data_in[106] I
la_data_in[107] I
la_data_in[108] I
la_data_in[109] I
la_data_in[10] I
la_data_in[110] I
la_data_in[111] I
la_data_in[112] I
la_data_in[113] I
la_data_in[114] I
la_data_in[115] I
la_data_in[116] I
la_data_in[117] I
la_data_in[118] I
la_data_in[119] I
la_data_in[11] I
la_data_in[120] I
la_data_in[121] I
la_data_in[122] I
la_data_in[123] I
la_data_in[124] I
la_data_in[125] I
la_data_in[126] I
la_data_in[127] I
la_data_in[12] I
la_data_in[13] I
la_data_in[14] I
la_data_in[15] I
la_data_in[16] I
la_data_in[17] I
la_data_in[18] I
la_data_in[19] I
la_data_in[1] I
la_data_in[20] I
la_data_in[21] I
la_data_in[22] I
la_data_in[23] I
la_data_in[24] I
la_data_in[25] I
la_data_in[26] I
la_data_in[27] I
la_data_in[28] I
la_data_in[29] I
la_data_in[2] I
la_data_in[30] I
la_data_in[31] I
la_data_in[32] I
la_data_in[33] I
la_data_in[34] I
la_data_in[35] I
la_data_in[36] I
la_data_in[37] I
la_data_in[38] I
la_data_in[39] I
la_data_in[3] I
la_data_in[40] I
la_data_in[41] I
la_data_in[42] I
la_data_in[43] I
la_data_in[44] I
la_data_in[45] I
la_data_in[46] I
la_data_in[47] I
la_data_in[48] I
la_data_in[49] I
la_data_in[4] I
la_data_in[50] I
la_data_in[51] I
la_data_in[52] I
la_data_in[53] I
la_data_in[54] I
la_data_in[55] I
la_data_in[56] I
la_data_in[57] I
la_data_in[58] I
la_data_in[59] I
la_data_in[5] I
la_data_in[60] I
la_data_in[61] I
la_data_in[62] I
la_data_in[63] I
la_data_in[64] I
la_data_in[65] I
la_data_in[66] I
la_data_in[67] I
la_data_in[68] I
la_data_in[69] I
la_data_in[6] I
la_data_in[70] I
la_data_in[71] I
la_data_in[72] I
la_data_in[73] I
la_data_in[74] I
la_data_in[75] I
la_data_in[76] I
la_data_in[77] I
la_data_in[78] I
la_data_in[79] I
la_data_in[7] I
la_data_in[80] I
la_data_in[81] I
la_data_in[82] I
la_data_in[83] I
la_data_in[84] I
la_data_in[85] I
la_data_in[86] I
la_data_in[87] I
la_data_in[88] I
la_data_in[89] I
la_data_in[8] I
la_data_in[90] I
la_data_in[91] I
la_data_in[92] I
la_data_in[93] I
la_data_in[94] I
la_data_in[95] I
la_data_in[96] I
la_data_in[97] I
la_data_in[98] I
la_data_in[99] I
la_data_in[9] I
la_data_out[0] O
la_data_out[100] O
la_data_out[101] O
la_data_out[102] O
la_data_out[103] O
la_data_out[104] O
la_data_out[105] O
la_data_out[106] O
la_data_out[107] O
la_data_out[108] O
la_data_out[109] O
la_data_out[10] O
la_data_out[110] O
la_data_out[111] O
la_data_out[112] O
la_data_out[113] O
la_data_out[114] O
la_data_out[115] O
la_data_out[116] O
la_data_out[117] O
la_data_out[118] O
la_data_out[119] O
la_data_out[11] O
la_data_out[120] O
la_data_out[121] O
la_data_out[122] O
la_data_out[123] O
la_data_out[124] O
la_data_out[125] O
la_data_out[126] O
la_data_out[127] O
la_data_out[12] O
la_data_out[13] O
la_data_out[14] O
la_data_out[15] O
la_data_out[16] O
la_data_out[17] O
la_data_out[18] O
la_data_out[19] O
la_data_out[1] O
la_data_out[20] O
la_data_out[21] O
la_data_out[22] O
la_data_out[23] O
la_data_out[24] O
la_data_out[25] O
la_data_out[26] O
la_data_out[27] O
la_data_out[28] O
la_data_out[29] O
la_data_out[2] O
la_data_out[30] O
la_data_out[31] O
la_data_out[32] O
la_data_out[33] O
la_data_out[34] O
la_data_out[35] O
la_data_out[36] O
la_data_out[37] O
la_data_out[38] O
la_data_out[39] O
la_data_out[3] O
la_data_out[40] O
la_data_out[41] O
la_data_out[42] O
la_data_out[43] O
la_data_out[44] O
la_data_out[45] O
la_data_out[46] O
la_data_out[47] O
la_data_out[48] O
la_data_out[49] O
la_data_out[4] O
la_data_out[50] O
la_data_out[51] O
la_data_out[52] O
la_data_out[53] O
la_data_out[54] O
la_data_out[55] O
la_data_out[56] O
la_data_out[57] O
la_data_out[58] O
la_data_out[59] O
la_data_out[5] O
la_data_out[60] O
la_data_out[61] O
la_data_out[62] O
la_data_out[63] O
la_data_out[64] O
la_data_out[65] O
la_data_out[66] O
la_data_out[67] O
la_data_out[68] O
la_data_out[69] O
la_data_out[6] O
la_data_out[70] O
la_data_out[71] O
la_data_out[72] O
la_data_out[73] O
la_data_out[74] O
la_data_out[75] O
la_data_out[76] O
la_data_out[77] O
la_data_out[78] O
la_data_out[79] O
la_data_out[7] O
la_data_out[80] O
la_data_out[81] O
la_data_out[82] O
la_data_out[83] O
la_data_out[84] O
la_data_out[85] O
la_data_out[86] O
la_data_out[87] O
la_data_out[88] O
la_data_out[89] O
la_data_out[8] O
la_data_out[90] O
la_data_out[91] O
la_data_out[92] O
la_data_out[93] O
la_data_out[94] O
la_data_out[95] O
la_data_out[96] O
la_data_out[97] O
la_data_out[98] O
la_data_out[99] O
la_data_out[9] O
la_oenb[0] I
la_oenb[100] I
la_oenb[101] I
la_oenb[102] I
la_oenb[103] I
la_oenb[104] I
la_oenb[105] I
la_oenb[106] I
la_oenb[107] I
la_oenb[108] I
la_oenb[109] I
la_oenb[10] I
la_oenb[110] I
la_oenb[111] I
la_oenb[112] I
la_oenb[113] I
la_oenb[114] I
la_oenb[115] I
la_oenb[116] I
la_oenb[117] I
la_oenb[118] I
la_oenb[119] I
la_oenb[11] I
la_oenb[120] I
la_oenb[121] I
la_oenb[122] I
la_oenb[123] I
la_oenb[124] I
la_oenb[125] I
la_oenb[126] I
la_oenb[127] I
la_oenb[12] I
la_oenb[13] I
la_oenb[14] I
la_oenb[15] I
la_oenb[16] I
la_oenb[17] I
la_oenb[18] I
la_oenb[19] I
la_oenb[1] I
la_oenb[20] I
la_oenb[21] I
la_oenb[22] I
la_oenb[23] I
la_oenb[24] I
la_oenb[25] I
la_oenb[26] I
la_oenb[27] I
la_oenb[28] I
la_oenb[29] I
la_oenb[2] I
la_oenb[30] I
la_oenb[31] I
la_oenb[32] I
la_oenb[33] I
la_oenb[34] I
la_oenb[35] I
la_oenb[36] I
la_oenb[37] I
la_oenb[38] I
la_oenb[39] I
la_oenb[3] I
la_oenb[40] I
la_oenb[41] I
la_oenb[42] I
la_oenb[43] I
la_oenb[44] I
la_oenb[45] I
la_oenb[46] I
la_oenb[47] I
la_oenb[48] I
la_oenb[49] I
la_oenb[4] I
la_oenb[50] I
la_oenb[51] I
la_oenb[52] I
la_oenb[53] I
la_oenb[54] I
la_oenb[55] I
la_oenb[56] I
la_oenb[57] I
la_oenb[58] I
la_oenb[59] I
la_oenb[5] I
la_oenb[60] I
la_oenb[61] I
la_oenb[62] I
la_oenb[63] I
la_oenb[64] I
la_oenb[65] I
la_oenb[66] I
la_oenb[67] I
la_oenb[68] I
la_oenb[69] I
la_oenb[6] I
la_oenb[70] I
la_oenb[71] I
la_oenb[72] I
la_oenb[73] I
la_oenb[74] I
la_oenb[75] I
la_oenb[76] I
la_oenb[77] I
la_oenb[78] I
la_oenb[79] I
la_oenb[7] I
la_oenb[80] I
la_oenb[81] I
la_oenb[82] I
la_oenb[83] I
la_oenb[84] I
la_oenb[85] I
la_oenb[86] I
la_oenb[87] I
la_oenb[88] I
la_oenb[89] I
la_oenb[8] I
la_oenb[90] I
la_oenb[91] I
la_oenb[92] I
la_oenb[93] I
la_oenb[94] I
la_oenb[95] I
la_oenb[96] I
la_oenb[97] I
la_oenb[98] I
la_oenb[99] I
la_oenb[9] I
user_clock2 I
user_irq[0] O
user_irq[1] O
user_irq[2] O
wb_clk_i I
wb_rst_i I
wbs_ack_o O
wbs_adr_i[0] I
wbs_adr_i[10] I
wbs_adr_i[11] I
wbs_adr_i[12] I
wbs_adr_i[13] I
wbs_adr_i[14] I
wbs_adr_i[15] I
wbs_adr_i[16] I
wbs_adr_i[17] I
wbs_adr_i[18] I
wbs_adr_i[19] I
wbs_adr_i[1] I
wbs_adr_i[20] I
wbs_adr_i[21] I
wbs_adr_i[22] I
wbs_adr_i[23] I
wbs_adr_i[24] I
wbs_adr_i[25] I
wbs_adr_i[26] I
wbs_adr_i[27] I
wbs_adr_i[28] I
wbs_adr_i[29] I
wbs_adr_i[2] I
wbs_adr_i[30] I
wbs_adr_i[31] I
wbs_adr_i[3] I
wbs_adr_i[4] I
wbs_adr_i[5] I
wbs_adr_i[6] I
wbs_adr_i[7] I
wbs_adr_i[8] I
wbs_adr_i[9] I
wbs_cyc_i I
wbs_dat_i[0] I
wbs_dat_i[10] I
wbs_dat_i[11] I
wbs_dat_i[12] I
wbs_dat_i[13] I
wbs_dat_i[14] I
wbs_dat_i[15] I
wbs_dat_i[16] I
wbs_dat_i[17] I
wbs_dat_i[18] I
wbs_dat_i[19] I
wbs_dat_i[1] I
wbs_dat_i[20] I
wbs_dat_i[21] I
wbs_dat_i[22] I
wbs_dat_i[23] I
wbs_dat_i[24] I
wbs_dat_i[25] I
wbs_dat_i[26] I
wbs_dat_i[27] I
wbs_dat_i[28] I
wbs_dat_i[29] I
wbs_dat_i[2] I
wbs_dat_i[30] I
wbs_dat_i[31] I
wbs_dat_i[3] I
wbs_dat_i[4] I
wbs_dat_i[5] I
wbs_dat_i[6] I
wbs_dat_i[7] I
wbs_dat_i[8] I
wbs_dat_i[9] I
wbs_dat_o[0] O
wbs_dat_o[10] O
wbs_dat_o[11] O
wbs_dat_o[12] O
wbs_dat_o[13] O
wbs_dat_o[14] O
wbs_dat_o[15] O
wbs_dat_o[16] O
wbs_dat_o[17] O
wbs_dat_o[18] O
wbs_dat_o[19] O
wbs_dat_o[1] O
wbs_dat_o[20] O
wbs_dat_o[21] O
wbs_dat_o[22] O
wbs_dat_o[23] O
wbs_dat_o[24] O
wbs_dat_o[25] O
wbs_dat_o[26] O
wbs_dat_o[27] O
wbs_dat_o[28] O
wbs_dat_o[29] O
wbs_dat_o[2] O
wbs_dat_o[30] O
wbs_dat_o[31] O
wbs_dat_o[3] O
wbs_dat_o[4] O
wbs_dat_o[5] O
wbs_dat_o[6] O
wbs_dat_o[7] O
wbs_dat_o[8] O
wbs_dat_o[9] O
wbs_sel_i[0] I
wbs_sel_i[1] I
wbs_sel_i[2] I
wbs_sel_i[3] I
wbs_stb_i I
wbs_we_i I

*D_NET *540 0.0234478
*CONN
*P wb_clk_i I
*I *646:wb_clk_i I *D CF_SRAM_1024x32_wb_wrapper
*CAP
1 wb_clk_i 0.00679698
2 *646:wb_clk_i 0.00461214
3 *540:13 0.0114091
4 *646:wb_clk_i *646:wb_rst_i 0
5 *646:wb_clk_i *542:5 0
6 *540:13 wbs_ack_o 0
7 *540:13 *575:17 0
8 *540:13 *576:17 0
9 *540:13 *630:19 0.000629528
*RES
1 wb_clk_i *540:13 35.3186 
2 *540:13 *646:wb_clk_i 94.1696 
*END

*D_NET *541 0.0235892
*CONN
*P wb_rst_i I
*I *646:wb_rst_i I *D CF_SRAM_1024x32_wb_wrapper
*CAP
1 wb_rst_i 0.000603455
2 *646:wb_rst_i 0.00653393
3 *541:13 0.0108869
4 *541:11 0.00495645
5 *646:wb_rst_i *646:wbs_adr_i[0] 0
6 *646:wb_rst_i *542:5 0
7 *541:13 wbs_ack_o 0.000608416
8 *541:13 *575:17 0
9 *646:wb_clk_i *646:wb_rst_i 0
*RES
1 wb_rst_i *541:11 9.31471 
2 *541:11 *541:13 93.625 
3 *541:13 *646:wb_rst_i 32.9111 
*END

*D_NET *542 0.0230588
*CONN
*P wbs_ack_o O
*I *646:wbs_ack_o O *D CF_SRAM_1024x32_wb_wrapper
*CAP
1 wbs_ack_o 0.00691931
2 *646:wbs_ack_o 0.0043059
3 *542:5 0.0112252
4 *542:5 *646:wbs_cyc_i 0
5 *646:wb_clk_i *542:5 0
6 *646:wb_rst_i *542:5 0
7 *540:13 wbs_ack_o 0
8 *541:13 wbs_ack_o 0.000608416
*RES
1 *646:wbs_ack_o *542:5 88.0982 
2 *542:5 wbs_ack_o 40.6477 
*END

*D_NET *543 0.0215311
*CONN
*P wbs_adr_i[0] I
*I *646:wbs_adr_i[0] I *D CF_SRAM_1024x32_wb_wrapper
*CAP
1 wbs_adr_i[0] 0.00157429
2 *646:wbs_adr_i[0] 0.0063674
3 *543:11 0.00919126
4 *543:9 0.00439815
5 *646:wbs_adr_i[0] *646:wbs_adr_i[1] 0
6 *646:wbs_adr_i[0] *646:wbs_dat_i[0] 0
7 *646:wbs_adr_i[0] *646:wbs_we_i 0
8 *543:9 *645:17 0
9 *646:wb_rst_i *646:wbs_adr_i[0] 0
*RES
1 wbs_adr_i[0] *543:9 31.8482 
2 *543:9 *543:11 58.2679 
3 *543:11 *646:wbs_adr_i[0] 37.4691 
*END

*D_NET *544 0.0122893
*CONN
*P wbs_adr_i[10] I
*I *646:wbs_adr_i[10] I *D CF_SRAM_1024x32_wb_wrapper
*CAP
1 wbs_adr_i[10] 0.0010173
2 *646:wbs_adr_i[10] 0.00469579
3 *544:13 0.00571309
4 *646:wbs_adr_i[10] wbs_dat_o[10] 0
5 *646:wbs_adr_i[10] *646:wbs_dat_i[10] 0
6 *646:wbs_adr_i[10] *646:wbs_dat_i[9] 0
7 *646:wbs_adr_i[10] *607:13 0
8 *646:wbs_adr_i[10] *609:5 0
9 *646:wbs_adr_i[10] *639:5 0
10 *544:13 wbs_dat_o[10] 0.000596699
11 *544:13 *646:wbs_adr_i[12] 8.42801e-05
12 *544:13 *646:wbs_dat_i[12] 0.000182184
*RES
1 wbs_adr_i[10] *544:13 15.9327 
2 *544:13 *646:wbs_adr_i[10] 96.5982 
*END

*D_NET *545 0.0155623
*CONN
*P wbs_adr_i[11] I
*I *646:wbs_adr_i[11] I *D CF_SRAM_1024x32_wb_wrapper
*CAP
1 wbs_adr_i[11] 0.000968984
2 *646:wbs_adr_i[11] 0.00511995
3 *545:11 0.00608894
4 *646:wbs_adr_i[11] wbs_dat_o[10] 0
5 *646:wbs_adr_i[11] *646:wbs_dat_i[11] 0
6 *646:wbs_adr_i[11] *609:5 0
7 *545:11 wbs_dat_o[10] 0
8 *545:11 wbs_dat_o[11] 5.44309e-05
9 *545:11 wbs_dat_o[14] 0.000168416
10 *545:11 *546:13 8.64392e-05
11 *545:11 *578:11 0.00131226
12 *545:11 *579:13 0.00176294
*RES
1 wbs_adr_i[11] *545:11 11.9308 
2 *545:11 *646:wbs_adr_i[11] 101.455 
*END

*D_NET *546 0.0173902
*CONN
*P wbs_adr_i[12] I
*I *646:wbs_adr_i[12] I *D CF_SRAM_1024x32_wb_wrapper
*CAP
1 wbs_adr_i[12] 0.000966245
2 *646:wbs_adr_i[12] 0.00481885
3 *546:13 0.0057851
4 *646:wbs_adr_i[12] wbs_dat_o[9] 0
5 *646:wbs_adr_i[12] *646:wbs_dat_i[12] 0
6 *646:wbs_adr_i[12] *610:7 0
7 *646:wbs_adr_i[12] *610:9 0
8 *546:13 wbs_dat_o[11] 0.00308409
9 *546:13 wbs_dat_o[15] 6.31001e-05
10 *546:13 wbs_dat_o[16] 0.000543613
11 *546:13 *579:13 0.0019585
12 *544:13 *646:wbs_adr_i[12] 8.42801e-05
13 *545:11 *546:13 8.64392e-05
*RES
1 wbs_adr_i[12] *546:13 15.9455 
2 *546:13 *646:wbs_adr_i[12] 99.6339 
*END

*D_NET *547 0.0178557
*CONN
*P wbs_adr_i[13] I
*I *646:wbs_adr_i[13] I *D CF_SRAM_1024x32_wb_wrapper
*CAP
1 wbs_adr_i[13] 0.00132664
2 *646:wbs_adr_i[13] 0.00312559
3 *547:15 0.00481226
4 *547:13 0.00301331
5 *646:wbs_adr_i[13] *646:wbs_adr_i[16] 0
6 *646:wbs_adr_i[13] *646:wbs_dat_i[12] 0
7 *646:wbs_adr_i[13] *646:wbs_dat_i[13] 0
8 *547:13 *646:wbs_adr_i[20] 0.00153962
9 *547:13 *618:5 0
10 *547:13 *620:5 0
11 *547:15 *646:wbs_adr_i[20] 0.00289706
12 *547:15 *646:wbs_dat_i[20] 0.00114121
13 *547:15 *620:5 0
*RES
1 wbs_adr_i[13] *547:13 32.0982 
2 *547:13 *547:15 64.3393 
3 *547:15 *646:wbs_adr_i[13] 22.5335 
*END

*D_NET *548 0.0190937
*CONN
*P wbs_adr_i[14] I
*I *646:wbs_adr_i[14] I *D CF_SRAM_1024x32_wb_wrapper
*CAP
1 wbs_adr_i[14] 0.00330613
2 *646:wbs_adr_i[14] 0.00434249
3 *548:13 0.00764862
4 *646:wbs_adr_i[14] *646:wbs_dat_i[14] 0
5 *646:wbs_adr_i[14] *612:5 0
6 *646:wbs_adr_i[14] *613:5 0
7 *548:13 *646:wbs_adr_i[22] 0
8 *548:13 *646:wbs_adr_i[23] 0
9 *548:13 *555:13 0.000304362
10 *548:13 *584:13 0.00349206
*RES
1 wbs_adr_i[14] *548:13 31.207 
2 *548:13 *646:wbs_adr_i[14] 88.0982 
*END

*D_NET *549 0.0180899
*CONN
*P wbs_adr_i[15] I
*I *646:wbs_adr_i[15] I *D CF_SRAM_1024x32_wb_wrapper
*CAP
1 wbs_adr_i[15] 0.00486925
2 *646:wbs_adr_i[15] 0.00393052
3 *549:13 0.00879976
4 *646:wbs_adr_i[15] *646:wbs_dat_i[15] 0
5 *646:wbs_adr_i[15] *613:5 0
6 *646:wbs_adr_i[15] *614:5 0
7 *549:13 *551:13 0
8 *549:13 *592:13 0.000490359
9 *549:13 *624:5 0
10 *549:13 *625:5 0
*RES
1 wbs_adr_i[15] *549:13 40.1502 
2 *549:13 *646:wbs_adr_i[15] 80.8125 
*END

*D_NET *550 0.0206436
*CONN
*P wbs_adr_i[16] I
*I *646:wbs_adr_i[16] I *D CF_SRAM_1024x32_wb_wrapper
*CAP
1 wbs_adr_i[16] 0.000782126
2 *646:wbs_adr_i[16] 0.00548666
3 *550:11 0.00850857
4 *550:9 0.00380404
5 *646:wbs_adr_i[16] *646:wbs_adr_i[18] 0
6 *646:wbs_adr_i[16] *646:wbs_adr_i[21] 0
7 *646:wbs_adr_i[16] *646:wbs_adr_i[28] 0.000688913
8 *646:wbs_adr_i[16] *646:wbs_dat_i[16] 0
9 *646:wbs_adr_i[16] *562:17 0.000630455
10 *646:wbs_adr_i[16] *614:5 0
11 *646:wbs_adr_i[16] *627:5 0.000473839
12 *550:9 *627:5 0
13 *550:9 *628:11 0
14 *550:11 *646:wbs_adr_i[28] 0.000268961
15 *550:11 *646:wbs_dat_i[28] 0
16 *550:11 *627:5 0
17 *550:11 *628:11 0
18 *646:wbs_adr_i[13] *646:wbs_adr_i[16] 0
*RES
1 wbs_adr_i[16] *550:9 12.9554 
2 *550:9 *550:11 61.7321 
3 *550:11 *646:wbs_adr_i[16] 49.4002 
*END

*D_NET *551 0.0225641
*CONN
*P wbs_adr_i[17] I
*I *646:wbs_adr_i[17] I *D CF_SRAM_1024x32_wb_wrapper
*CAP
1 wbs_adr_i[17] 0.0059575
2 *646:wbs_adr_i[17] 0.0036593
3 *551:13 0.00961679
4 *646:wbs_adr_i[17] *646:wbs_dat_i[17] 0
5 *646:wbs_adr_i[17] *615:5 0
6 *551:13 *581:11 0
7 *551:13 *590:13 0
8 *551:13 *593:13 0.00333053
9 *551:13 *599:15 0
10 *551:13 *629:9 0
11 *551:13 *631:5 0
12 *549:13 *551:13 0
*RES
1 wbs_adr_i[17] *551:13 49.2701 
2 *551:13 *646:wbs_adr_i[17] 74.7411 
*END

*D_NET *552 0.0273839
*CONN
*P wbs_adr_i[18] I
*I *646:wbs_adr_i[18] I *D CF_SRAM_1024x32_wb_wrapper
*CAP
1 wbs_adr_i[18] 0.00174917
2 *646:wbs_adr_i[18] 0.00533586
3 *552:11 0.00799599
4 *552:9 0.0044093
5 *646:wbs_adr_i[18] *646:wbs_dat_i[18] 0
6 *646:wbs_adr_i[18] *646:wbs_dat_i[21] 0.00789358
7 *646:wbs_adr_i[18] *562:17 0
8 *646:wbs_adr_i[18] *616:5 0
9 *646:wbs_adr_i[16] *646:wbs_adr_i[18] 0
*RES
1 wbs_adr_i[18] *552:9 31.2411 
2 *552:9 *552:11 52.8036 
3 *552:11 *646:wbs_adr_i[18] 42.5731 
*END

*D_NET *553 0.0279545
*CONN
*P wbs_adr_i[19] I
*I *646:wbs_adr_i[19] I *D CF_SRAM_1024x32_wb_wrapper
*CAP
1 wbs_adr_i[19] 0.00382864
2 *646:wbs_adr_i[19] 0.00468264
3 *553:13 0.00851128
4 *646:wbs_adr_i[19] *646:wbs_dat_i[19] 0
5 *646:wbs_adr_i[19] *617:5 0
6 *646:wbs_adr_i[19] *618:5 0
7 *553:13 wbs_dat_o[19] 0.00192999
8 *553:13 wbs_dat_o[20] 0.000152727
9 *553:13 *646:wbs_adr_i[29] 0.000798222
10 *553:13 *555:13 0
11 *553:13 *557:13 0.000190402
12 *553:13 *558:13 0.000263453
13 *553:13 *559:13 0.000797759
14 *553:13 *561:13 0.00643398
15 *553:13 *580:13 0.000365455
*RES
1 wbs_adr_i[19] *553:13 32.9602 
2 *553:13 *646:wbs_adr_i[19] 94.7768 
*END

*D_NET *554 0.0204223
*CONN
*P wbs_adr_i[1] I
*I *646:wbs_adr_i[1] I *D CF_SRAM_1024x32_wb_wrapper
*CAP
1 wbs_adr_i[1] 0.00159374
2 *646:wbs_adr_i[1] 0.00608716
3 *554:11 0.0086174
4 *554:9 0.00412398
5 *646:wbs_adr_i[1] *646:wbs_dat_i[1] 0
6 *646:wbs_adr_i[1] *646:wbs_sel_i[0] 0
7 *646:wbs_adr_i[0] *646:wbs_adr_i[1] 0
*RES
1 wbs_adr_i[1] *554:9 31.8482 
2 *554:9 *554:11 52.1964 
3 *554:11 *646:wbs_adr_i[1] 41.3065 
*END

*D_NET *555 0.0332067
*CONN
*P wbs_adr_i[20] I
*I *646:wbs_adr_i[20] I *D CF_SRAM_1024x32_wb_wrapper
*CAP
1 wbs_adr_i[20] 0.00438298
2 *646:wbs_adr_i[20] 0.00317503
3 *555:13 0.00755802
4 *646:wbs_adr_i[20] *646:wbs_dat_i[20] 0
5 *646:wbs_adr_i[20] *618:5 0
6 *555:13 wbs_dat_o[20] 0.0119445
7 *555:13 *584:13 0
8 *555:13 *595:13 0.00140517
9 *547:13 *646:wbs_adr_i[20] 0.00153962
10 *547:15 *646:wbs_adr_i[20] 0.00289706
11 *548:13 *555:13 0.000304362
12 *553:13 *555:13 0
*RES
1 wbs_adr_i[20] *555:13 37.994 
2 *555:13 *646:wbs_adr_i[20] 91.1339 
*END

*D_NET *556 0.0299981
*CONN
*P wbs_adr_i[21] I
*I *646:wbs_adr_i[21] I *D CF_SRAM_1024x32_wb_wrapper
*CAP
1 wbs_adr_i[21] 0.00175455
2 *646:wbs_adr_i[21] 0.00668597
3 *556:11 0.00992776
4 *556:9 0.00499635
5 *646:wbs_adr_i[21] *646:wbs_dat_i[21] 0
6 *646:wbs_adr_i[21] *567:17 0.00663343
7 *646:wbs_adr_i[21] *620:5 0
8 *556:9 wbs_dat_o[20] 0
9 *646:wbs_adr_i[16] *646:wbs_adr_i[21] 0
*RES
1 wbs_adr_i[21] *556:9 31.8482 
2 *556:9 *556:11 64.9464 
3 *556:11 *646:wbs_adr_i[21] 35.5469 
*END

*D_NET *557 0.0431026
*CONN
*P wbs_adr_i[22] I
*I *646:wbs_adr_i[22] I *D CF_SRAM_1024x32_wb_wrapper
*CAP
1 wbs_adr_i[22] 0.0034868
2 *646:wbs_adr_i[22] 0.00467934
3 *557:13 0.00816613
4 *646:wbs_adr_i[22] wbs_dat_o[22] 0.000288548
5 *646:wbs_adr_i[22] *646:wbs_dat_i[22] 0
6 *646:wbs_adr_i[22] *621:5 0
7 *557:13 wbs_dat_o[20] 0.0124599
8 *557:13 *558:13 0.0138315
9 *557:13 *595:13 0
10 *548:13 *646:wbs_adr_i[22] 0
11 *553:13 *557:13 0.000190402
*RES
1 wbs_adr_i[22] *557:13 40.5055 
2 *557:13 *646:wbs_adr_i[22] 92.3482 
*END

*D_NET *558 0.046977
*CONN
*P wbs_adr_i[23] I
*I *646:wbs_adr_i[23] I *D CF_SRAM_1024x32_wb_wrapper
*CAP
1 wbs_adr_i[23] 0.00353641
2 *646:wbs_adr_i[23] 0.00464505
3 *558:13 0.00818146
4 *646:wbs_adr_i[23] *646:wbs_dat_i[22] 0
5 *646:wbs_adr_i[23] *646:wbs_dat_i[23] 0
6 *646:wbs_adr_i[23] *581:11 0
7 *558:13 *646:wbs_adr_i[29] 0.00130633
8 *558:13 *559:13 0.0152128
9 *558:13 *591:9 0
10 *558:13 *595:13 0
11 *548:13 *646:wbs_adr_i[23] 0
12 *553:13 *558:13 0.000263453
13 *557:13 *558:13 0.0138315
*RES
1 wbs_adr_i[23] *558:13 41.8461 
2 *558:13 *646:wbs_adr_i[23] 92.9554 
*END

*D_NET *559 0.050258
*CONN
*P wbs_adr_i[24] I
*I *646:wbs_adr_i[24] I *D CF_SRAM_1024x32_wb_wrapper
*CAP
1 wbs_adr_i[24] 0.00356762
2 *646:wbs_adr_i[24] 0.00468018
3 *559:13 0.00824779
4 *646:wbs_adr_i[24] *646:wbs_dat_i[24] 0
5 *646:wbs_adr_i[24] *623:7 0
6 *646:wbs_adr_i[24] *623:9 0
7 *646:wbs_adr_i[24] *624:5 0
8 *559:13 *646:wbs_adr_i[29] 0.002417
9 *559:13 *561:13 0.0153349
10 *559:13 *595:13 0
11 *553:13 *559:13 0.000797759
12 *558:13 *559:13 0.0152128
*RES
1 wbs_adr_i[24] *559:13 42.3397 
2 *559:13 *646:wbs_adr_i[24] 93.5625 
*END

*D_NET *560 0.0296001
*CONN
*P wbs_adr_i[25] I
*I *646:wbs_adr_i[25] I *D CF_SRAM_1024x32_wb_wrapper
*CAP
1 wbs_adr_i[25] 0.00169917
2 *646:wbs_adr_i[25] 0.00130077
3 *560:17 0.0108202
4 *560:13 0.0118001
5 *560:9 0.00397989
6 *646:wbs_adr_i[25] *646:wbs_dat_i[25] 0
7 *646:wbs_adr_i[25] *624:5 0
8 *560:17 *646:wbs_dat_i[21] 0
9 *560:17 *563:13 0
10 *560:17 *583:17 0
*RES
1 wbs_adr_i[25] *560:9 31.8482 
2 *560:9 *560:13 49.535 
3 *560:13 *560:17 31.563 
4 *560:17 *646:wbs_adr_i[25] 26.1696 
*END

*D_NET *561 0.0490664
*CONN
*P wbs_adr_i[26] I
*I *646:wbs_adr_i[26] I *D CF_SRAM_1024x32_wb_wrapper
*CAP
1 wbs_adr_i[26] 0.00652982
2 *646:wbs_adr_i[26] 0.0041583
3 *561:13 0.0106881
4 *646:wbs_adr_i[26] *646:wbs_dat_i[26] 0
5 *646:wbs_adr_i[26] *582:9 0.0025463
6 *646:wbs_adr_i[26] *625:5 0
7 *646:wbs_adr_i[26] *626:5 0
8 *561:13 wbs_dat_o[19] 0
9 *561:13 *646:wbs_adr_i[29] 0.00337506
10 *561:13 *595:13 0
11 *561:13 *599:13 0
12 *553:13 *561:13 0.00643398
13 *559:13 *561:13 0.0153349
*RES
1 wbs_adr_i[26] *561:13 45.4583 
2 *561:13 *646:wbs_adr_i[26] 94.1696 
*END

*D_NET *562 0.0320569
*CONN
*P wbs_adr_i[27] I
*I *646:wbs_adr_i[27] I *D CF_SRAM_1024x32_wb_wrapper
*CAP
1 wbs_adr_i[27] 0.00165336
2 *646:wbs_adr_i[27] 0.000697266
3 *562:17 0.0112026
4 *562:11 0.0133626
5 *562:9 0.00451059
6 *646:wbs_adr_i[27] *646:wbs_dat_i[27] 0
7 *646:wbs_adr_i[27] *626:5 0
8 *562:17 *646:wbs_dat_i[21] 0
9 *562:17 *567:17 0
10 *646:wbs_adr_i[16] *562:17 0.000630455
11 *646:wbs_adr_i[18] *562:17 0
*RES
1 wbs_adr_i[27] *562:9 31.8482 
2 *562:9 *562:11 58.2679 
3 *562:11 *562:17 38.3601 
4 *562:17 *646:wbs_adr_i[27] 14.0268 
*END

*D_NET *563 0.0336653
*CONN
*P wbs_adr_i[28] I
*I *646:wbs_adr_i[28] I *D CF_SRAM_1024x32_wb_wrapper
*CAP
1 wbs_adr_i[28] 0.000112103
2 *646:wbs_adr_i[28] 0.0013193
3 *563:13 0.0125798
4 *563:7 0.014654
5 *563:5 0.00350558
6 *646:wbs_adr_i[28] *646:wbs_dat_i[28] 0
7 *646:wbs_adr_i[28] *627:5 0
8 *563:13 *566:17 0
9 *563:13 *583:17 0.000536646
10 *646:wbs_adr_i[16] *646:wbs_adr_i[28] 0.000688913
11 *550:11 *646:wbs_adr_i[28] 0.000268961
12 *560:17 *563:13 0
*RES
1 wbs_adr_i[28] *563:5 0.883929 
2 *563:5 *563:7 69.3393 
3 *563:7 *563:13 39.8735 
4 *563:13 *646:wbs_adr_i[28] 32.2411 
*END

*D_NET *564 0.0519952
*CONN
*P wbs_adr_i[29] I
*I *646:wbs_adr_i[29] I *D CF_SRAM_1024x32_wb_wrapper
*CAP
1 wbs_adr_i[29] 0.0195251
2 *646:wbs_adr_i[29] 0.0195251
3 *646:wbs_adr_i[29] wbs_dat_o[19] 0.000581019
4 *646:wbs_adr_i[29] wbs_dat_o[22] 0.00260542
5 *646:wbs_adr_i[29] *646:wbs_dat_i[29] 0.00042239
6 *646:wbs_adr_i[29] *599:13 2.27357e-05
7 *646:wbs_adr_i[29] *629:7 0.000377015
8 *646:wbs_adr_i[29] *629:9 0.00103975
9 *553:13 *646:wbs_adr_i[29] 0.000798222
10 *558:13 *646:wbs_adr_i[29] 0.00130633
11 *559:13 *646:wbs_adr_i[29] 0.002417
12 *561:13 *646:wbs_adr_i[29] 0.00337506
*RES
1 wbs_adr_i[29] *646:wbs_adr_i[29] 38.6847 
*END

*D_NET *565 0.0258135
*CONN
*P wbs_adr_i[2] I
*I *646:wbs_adr_i[2] I *D CF_SRAM_1024x32_wb_wrapper
*CAP
1 wbs_adr_i[2] 0.00257347
2 *646:wbs_adr_i[2] 0.0032704
3 *565:19 0.0032704
4 *565:17 0.00257347
5 *646:wbs_adr_i[2] wbs_dat_o[5] 0.000833908
6 *646:wbs_adr_i[2] *646:wbs_dat_i[2] 0
7 *646:wbs_adr_i[2] *646:wbs_sel_i[1] 0
8 *646:wbs_adr_i[2] *603:19 0
9 *646:wbs_adr_i[2] *619:5 0
10 *646:wbs_adr_i[2] *635:13 0.00554021
11 *565:17 wbs_dat_o[3] 8.5811e-05
12 *565:17 *568:17 0.000213364
13 *565:17 *569:13 1.90555e-05
14 *565:17 *570:13 0.000211619
15 *565:17 *587:33 0.00192635
16 *565:17 *608:13 0.00127122
17 *565:17 *619:15 0.000122159
18 *565:17 *640:15 0.00246942
19 *565:17 *642:23 0.000701427
20 *565:17 *643:11 0.000731216
*RES
1 wbs_adr_i[2] *565:17 48.6126 
2 *565:17 *565:19 4.5 
3 *565:19 *646:wbs_adr_i[2] 99.1786 
*END

*D_NET *566 0.0362144
*CONN
*P wbs_adr_i[30] I
*I *646:wbs_adr_i[30] I *D CF_SRAM_1024x32_wb_wrapper
*CAP
1 wbs_adr_i[30] 0.000747414
2 *646:wbs_adr_i[30] 0.00190832
3 *566:17 0.014821
4 *566:11 0.0154515
5 *566:9 0.0032862
6 *646:wbs_adr_i[30] *646:wbs_dat_i[30] 0
7 *646:wbs_adr_i[30] *599:15 0
8 *646:wbs_adr_i[30] *629:7 0
9 *646:wbs_adr_i[30] *629:9 0
10 *566:9 *599:13 0
11 *566:17 *588:13 0
12 *563:13 *566:17 0
*RES
1 wbs_adr_i[30] *566:9 13.7768 
2 *566:9 *566:11 52.4643 
3 *566:11 *566:17 43.4048 
4 *566:17 *646:wbs_adr_i[30] 38.3125 
*END

*D_NET *567 0.0406973
*CONN
*P wbs_adr_i[31] I
*I *646:wbs_adr_i[31] I *D CF_SRAM_1024x32_wb_wrapper
*CAP
1 wbs_adr_i[31] 0.00154229
2 *646:wbs_adr_i[31] 0.000393534
3 *567:17 0.0123696
4 *567:11 0.0150961
5 *567:9 0.00466236
6 *646:wbs_adr_i[31] *646:wbs_dat_i[31] 0
7 *646:wbs_adr_i[31] *631:5 0
8 *646:wbs_adr_i[21] *567:17 0.00663343
9 *562:17 *567:17 0
*RES
1 wbs_adr_i[31] *567:9 31.2411 
2 *567:9 *567:11 64.3393 
3 *567:11 *567:17 45.1344 
4 *567:17 *646:wbs_adr_i[31] 7.95536 
*END

*D_NET *568 0.0274579
*CONN
*P wbs_adr_i[3] I
*I *646:wbs_adr_i[3] I *D CF_SRAM_1024x32_wb_wrapper
*CAP
1 wbs_adr_i[3] 0.00168165
2 *646:wbs_adr_i[3] 0.00483194
3 *568:17 0.00651359
4 *646:wbs_adr_i[3] wbs_dat_o[3] 0.00187906
5 *646:wbs_adr_i[3] *646:wbs_dat_i[3] 0
6 *646:wbs_adr_i[3] *646:wbs_sel_i[2] 0
7 *646:wbs_adr_i[3] *604:7 0
8 *568:17 wbs_dat_o[1] 0.00144555
9 *568:17 wbs_dat_o[4] 0.000713224
10 *568:17 *569:13 3.19604e-05
11 *568:17 *570:13 0.00208438
12 *568:17 *587:33 0.000129601
13 *568:17 *598:23 0.00379488
14 *568:17 *601:21 0.000228075
15 *568:17 *602:13 0.000540758
16 *568:17 *603:19 0.000543621
17 *568:17 *608:13 0.00113689
18 *568:17 *640:15 7.45992e-05
19 *568:17 *642:23 0.00161479
20 *565:17 *568:17 0.000213364
*RES
1 wbs_adr_i[3] *568:17 19.5548 
2 *568:17 *646:wbs_adr_i[3] 99.0268 
*END

*D_NET *569 0.022006
*CONN
*P wbs_adr_i[4] I
*I *646:wbs_adr_i[4] I *D CF_SRAM_1024x32_wb_wrapper
*CAP
1 wbs_adr_i[4] 0.00100617
2 *646:wbs_adr_i[4] 0.0039911
3 *569:13 0.00499727
4 *646:wbs_adr_i[4] wbs_dat_o[6] 0
5 *646:wbs_adr_i[4] *646:wbs_dat_i[4] 0
6 *646:wbs_adr_i[4] *646:wbs_sel_i[3] 0
7 *646:wbs_adr_i[4] *634:9 0
8 *646:wbs_adr_i[4] *636:15 0.00116754
9 *646:wbs_adr_i[4] *636:19 0.00252054
10 *569:13 wbs_dat_o[4] 0.00375448
11 *569:13 *571:11 0.00113848
12 *569:13 *603:19 0.000915339
13 *569:13 *642:23 0.000930086
14 *569:13 *643:11 0.00153395
15 *565:17 *569:13 1.90555e-05
16 *568:17 *569:13 3.19604e-05
*RES
1 wbs_adr_i[4] *569:13 16.2446 
2 *569:13 *646:wbs_adr_i[4] 100.848 
*END

*D_NET *570 0.0186767
*CONN
*P wbs_adr_i[5] I
*I *646:wbs_adr_i[5] I *D CF_SRAM_1024x32_wb_wrapper
*CAP
1 wbs_adr_i[5] 0.000815255
2 *646:wbs_adr_i[5] 0.00424477
3 *570:13 0.00506002
4 *646:wbs_adr_i[5] *646:wbs_dat_i[5] 0
5 *646:wbs_adr_i[5] *572:9 0.00181961
6 *646:wbs_adr_i[5] *572:17 0
7 *646:wbs_adr_i[5] *605:9 0
8 *646:wbs_adr_i[5] *634:7 0
9 *646:wbs_adr_i[5] *634:9 0
10 *570:13 wbs_dat_o[4] 0.0034233
11 *570:13 *571:11 0.000104554
12 *570:13 *603:19 0.000913165
13 *565:17 *570:13 0.000211619
14 *568:17 *570:13 0.00208438
*RES
1 wbs_adr_i[5] *570:13 15.3906 
2 *570:13 *646:wbs_adr_i[5] 99.6339 
*END

*D_NET *571 0.0146173
*CONN
*P wbs_adr_i[6] I
*I *646:wbs_adr_i[6] I *D CF_SRAM_1024x32_wb_wrapper
*CAP
1 wbs_adr_i[6] 0.00105512
2 *646:wbs_adr_i[6] 0.00503338
3 *571:11 0.0060885
4 *646:wbs_adr_i[6] wbs_dat_o[7] 0
5 *646:wbs_adr_i[6] *646:wbs_dat_i[6] 0
6 *646:wbs_adr_i[6] *605:9 0
7 *646:wbs_adr_i[6] *605:11 0
8 *646:wbs_adr_i[6] *635:11 0
9 *646:wbs_adr_i[6] *637:13 0
10 *571:11 wbs_dat_o[4] 0.000245005
11 *571:11 *603:19 3.34254e-05
12 *571:11 *643:11 0.000918819
13 *569:13 *571:11 0.00113848
14 *570:13 *571:11 0.000104554
*RES
1 wbs_adr_i[6] *571:11 12.464 
2 *571:11 *646:wbs_adr_i[6] 101.455 
*END

*D_NET *572 0.0132544
*CONN
*P wbs_adr_i[7] I
*I *646:wbs_adr_i[7] I *D CF_SRAM_1024x32_wb_wrapper
*CAP
1 wbs_adr_i[7] 0.00156368
2 *646:wbs_adr_i[7] 0.00232329
3 *572:17 0.00364292
4 *572:9 0.00288331
5 *646:wbs_adr_i[7] *646:wbs_dat_i[6] 0
6 *646:wbs_adr_i[7] *646:wbs_dat_i[7] 0
7 *646:wbs_adr_i[7] *573:11 0
8 *646:wbs_adr_i[7] *636:15 0
9 *646:wbs_adr_i[7] *637:11 0
10 *646:wbs_adr_i[7] *637:13 0
11 *572:9 *605:9 0
12 *572:9 *634:9 0
13 *572:17 *634:9 0.00102158
14 *646:wbs_adr_i[5] *572:9 0.00181961
15 *646:wbs_adr_i[5] *572:17 0
*RES
1 wbs_adr_i[7] *572:9 44.5804 
2 *572:9 *572:17 21.9429 
3 *572:17 *646:wbs_adr_i[7] 47.4196 
*END

*D_NET *573 0.0107156
*CONN
*P wbs_adr_i[8] I
*I *646:wbs_adr_i[8] I *D CF_SRAM_1024x32_wb_wrapper
*CAP
1 wbs_adr_i[8] 0.0015112
2 *646:wbs_adr_i[8] 0.00112763
3 *573:11 0.00380295
4 *573:9 0.00418652
5 *646:wbs_adr_i[8] *646:wbs_dat_i[8] 0
6 *646:wbs_adr_i[8] *637:11 8.73592e-05
7 *646:wbs_adr_i[7] *573:11 0
*RES
1 wbs_adr_i[8] *573:9 31.2411 
2 *573:9 *573:11 55.2321 
3 *573:11 *646:wbs_adr_i[8] 24.7222 
*END

*D_NET *574 0.0104954
*CONN
*P wbs_adr_i[9] I
*I *646:wbs_adr_i[9] I *D CF_SRAM_1024x32_wb_wrapper
*CAP
1 wbs_adr_i[9] 0.000476392
2 *646:wbs_adr_i[9] 0.00477132
3 *574:13 0.00524771
4 *646:wbs_adr_i[9] *646:wbs_dat_i[9] 0
5 *646:wbs_adr_i[9] *638:5 0
*RES
1 wbs_adr_i[9] *574:13 18.1429 
2 *574:13 *646:wbs_adr_i[9] 98.5714 
*END

*D_NET *575 0.0322213
*CONN
*P wbs_cyc_i I
*I *646:wbs_cyc_i I *D CF_SRAM_1024x32_wb_wrapper
*CAP
1 wbs_cyc_i 0.00235997
2 *646:wbs_cyc_i 0.00476519
3 *575:21 0.00564557
4 *575:17 0.00324035
5 *646:wbs_cyc_i *646:wbs_stb_i 0
6 *646:wbs_cyc_i *646:wbs_we_i 0
7 *575:17 *576:17 0.00242905
8 *575:17 *587:29 0.000405575
9 *575:17 *598:23 9.54798e-06
10 *575:17 *645:17 0.00597357
11 *575:21 *576:17 0.000132088
12 *575:21 *576:21 0.00324826
13 *575:21 *601:21 0.000455514
14 *575:21 *630:19 0.000265517
15 *575:21 *645:21 0.00329105
16 *540:13 *575:17 0
17 *541:13 *575:17 0
18 *542:5 *646:wbs_cyc_i 0
*RES
1 wbs_cyc_i *575:17 28.6649 
2 *575:17 *575:21 44.4643 
3 *575:21 *646:wbs_cyc_i 97.3571 
*END

*D_NET *576 0.0266305
*CONN
*P wbs_dat_i[0] I
*I *646:wbs_dat_i[0] I *D CF_SRAM_1024x32_wb_wrapper
*CAP
1 wbs_dat_i[0] 0.00245722
2 *646:wbs_dat_i[0] 0.00479715
3 *576:21 0.00608849
4 *576:17 0.00374856
5 *646:wbs_dat_i[0] *646:wbs_we_i 0
6 *646:wbs_dat_i[0] *608:5 0
7 *576:17 *587:29 0.00120382
8 *576:17 *598:23 0.00057997
9 *576:17 *630:19 0.000443451
10 *576:17 *645:17 3.9768e-05
11 *576:21 *630:19 0.00134898
12 *576:21 *645:21 0.000113689
13 *646:wbs_adr_i[0] *646:wbs_dat_i[0] 0
14 *540:13 *576:17 0
15 *575:17 *576:17 0.00242905
16 *575:21 *576:17 0.000132088
17 *575:21 *576:21 0.00324826
*RES
1 wbs_dat_i[0] *576:17 26.7325 
2 *576:17 *576:21 43.2321 
3 *576:21 *646:wbs_dat_i[0] 97.0536 
*END

*D_NET *577 0.0122868
*CONN
*P wbs_dat_i[10] I
*I *646:wbs_dat_i[10] I *D CF_SRAM_1024x32_wb_wrapper
*CAP
1 wbs_dat_i[10] 0.00278583
2 *646:wbs_dat_i[10] 0.00335759
3 *577:13 0.00614342
4 *646:wbs_dat_i[10] *609:5 0
5 *577:13 *646:wbs_dat_i[12] 0
6 *577:13 *580:15 0
7 *577:13 *612:5 0
8 *646:wbs_adr_i[10] *646:wbs_dat_i[10] 0
*RES
1 wbs_dat_i[10] *577:13 43.7586 
2 *577:13 *646:wbs_dat_i[10] 69.2768 
*END

*D_NET *578 0.0158349
*CONN
*P wbs_dat_i[11] I
*I *646:wbs_dat_i[11] I *D CF_SRAM_1024x32_wb_wrapper
*CAP
1 wbs_dat_i[11] 0.00115246
2 *646:wbs_dat_i[11] 0.00481695
3 *578:11 0.00596941
4 *646:wbs_dat_i[11] wbs_dat_o[9] 0.00128752
5 *646:wbs_dat_i[11] *610:7 0
6 *646:wbs_dat_i[11] *610:9 0
7 *578:11 wbs_dat_o[14] 0.000734097
8 *578:11 *612:9 0.000562174
9 *646:wbs_adr_i[11] *646:wbs_dat_i[11] 0
10 *545:11 *578:11 0.00131226
*RES
1 wbs_dat_i[11] *578:11 12.846 
2 *578:11 *646:wbs_dat_i[11] 102.67 
*END

*D_NET *579 0.0185519
*CONN
*P wbs_dat_i[12] I
*I *646:wbs_dat_i[12] I *D CF_SRAM_1024x32_wb_wrapper
*CAP
1 wbs_dat_i[12] 0.00110812
2 *646:wbs_dat_i[12] 0.00485631
3 *579:13 0.00596443
4 *646:wbs_dat_i[12] wbs_dat_o[12] 0.00111172
5 *579:13 wbs_dat_o[14] 0.00131616
6 *579:13 wbs_dat_o[16] 5.9934e-05
7 *579:13 wbs_dat_o[17] 0.000231619
8 *646:wbs_adr_i[12] *646:wbs_dat_i[12] 0
9 *646:wbs_adr_i[13] *646:wbs_dat_i[12] 0
10 *544:13 *646:wbs_dat_i[12] 0.000182184
11 *545:11 *579:13 0.00176294
12 *546:13 *579:13 0.0019585
13 *577:13 *646:wbs_dat_i[12] 0
*RES
1 wbs_dat_i[12] *579:13 15.2357 
2 *579:13 *646:wbs_dat_i[12] 100.848 
*END

*D_NET *580 0.0174058
*CONN
*P wbs_dat_i[13] I
*I *646:wbs_dat_i[13] I *D CF_SRAM_1024x32_wb_wrapper
*CAP
1 wbs_dat_i[13] 0.00203784
2 *646:wbs_dat_i[13] 0.00146966
3 *580:15 0.00487137
4 *580:13 0.00543955
5 *646:wbs_dat_i[13] *612:5 0
6 *580:13 wbs_dat_o[10] 0.000378667
7 *580:13 wbs_dat_o[11] 0.000454328
8 *580:13 wbs_dat_o[15] 0.00157029
9 *580:13 wbs_dat_o[19] 0.000818664
10 *580:15 *612:5 0
11 *646:wbs_adr_i[13] *646:wbs_dat_i[13] 0
12 *553:13 *580:13 0.000365455
13 *577:13 *580:15 0
*RES
1 wbs_dat_i[13] *580:13 20.536 
2 *580:13 *580:15 68.2857 
3 *580:15 *646:wbs_dat_i[13] 29.5804 
*END

*D_NET *581 0.017612
*CONN
*P wbs_dat_i[14] I
*I *646:wbs_dat_i[14] I *D CF_SRAM_1024x32_wb_wrapper
*CAP
1 wbs_dat_i[14] 0.00508513
2 *646:wbs_dat_i[14] 0.00333687
3 *581:13 0.00333687
4 *581:11 0.00508513
5 *646:wbs_dat_i[14] *613:5 0
6 *581:11 *582:13 0
7 *581:11 *590:13 0.000767995
8 *581:11 *591:13 0
9 *581:11 *623:9 0
10 *646:wbs_adr_i[14] *646:wbs_dat_i[14] 0
11 *646:wbs_adr_i[23] *581:11 0
12 *551:13 *581:11 0
*RES
1 wbs_dat_i[14] *581:11 47.4634 
2 *581:11 *581:13 3.41 
3 *581:13 *646:wbs_dat_i[14] 68.6696 
*END

*D_NET *582 0.0208338
*CONN
*P wbs_dat_i[15] I
*I *646:wbs_dat_i[15] I *D CF_SRAM_1024x32_wb_wrapper
*CAP
1 wbs_dat_i[15] 0.00160008
2 *646:wbs_dat_i[15] 0.00303981
3 *582:13 0.00662714
4 *582:9 0.00518741
5 *646:wbs_dat_i[15] *614:5 0
6 *582:9 *625:5 0
7 *582:13 *585:17 0
8 *582:13 *591:13 0.00183308
9 *646:wbs_adr_i[15] *646:wbs_dat_i[15] 0
10 *646:wbs_adr_i[26] *582:9 0.0025463
11 *581:11 *582:13 0
*RES
1 wbs_dat_i[15] *582:9 43.6868 
2 *582:9 *582:13 14.9156 
3 *582:13 *646:wbs_dat_i[15] 62.5982 
*END

*D_NET *583 0.0220696
*CONN
*P wbs_dat_i[16] I
*I *646:wbs_dat_i[16] I *D CF_SRAM_1024x32_wb_wrapper
*CAP
1 wbs_dat_i[16] 8.20033e-05
2 *646:wbs_dat_i[16] 0.00156788
3 *583:17 0.00601272
4 *583:11 0.00685812
5 *583:9 0.00249529
6 *646:wbs_dat_i[16] *614:5 0
7 *646:wbs_dat_i[16] *615:5 0
8 *583:9 *628:11 1.22401e-05
9 *583:11 *646:wbs_dat_i[29] 0
10 *583:11 *628:5 0.00328742
11 *583:11 *628:11 0.00121727
12 *646:wbs_adr_i[16] *646:wbs_dat_i[16] 0
13 *560:17 *583:17 0
14 *563:13 *583:17 0.000536646
*RES
1 wbs_dat_i[16] *583:9 1.33036 
2 *583:9 *583:11 69.3393 
3 *583:11 *583:17 20.2714 
4 *583:17 *646:wbs_dat_i[16] 31.6339 
*END

*D_NET *584 0.0247599
*CONN
*P wbs_dat_i[17] I
*I *646:wbs_dat_i[17] I *D CF_SRAM_1024x32_wb_wrapper
*CAP
1 wbs_dat_i[17] 0.00508406
2 *646:wbs_dat_i[17] 0.0042933
3 *584:13 0.00937736
4 *646:wbs_dat_i[17] *615:5 0
5 *646:wbs_dat_i[17] *616:5 0
6 *584:13 *592:13 0
7 *584:13 *595:13 0.00251316
8 *584:13 *600:15 0
9 *584:13 *631:5 0
10 *646:wbs_adr_i[17] *646:wbs_dat_i[17] 0
11 *548:13 *584:13 0.00349206
12 *555:13 *584:13 0
*RES
1 wbs_dat_i[17] *584:13 37.4353 
2 *584:13 *646:wbs_dat_i[17] 87.4911 
*END

*D_NET *585 0.0259201
*CONN
*P wbs_dat_i[18] I
*I *646:wbs_dat_i[18] I *D CF_SRAM_1024x32_wb_wrapper
*CAP
1 wbs_dat_i[18] 0.00263179
2 *646:wbs_dat_i[18] 0.00276766
3 *585:17 0.00773899
4 *585:11 0.00760313
5 *646:wbs_dat_i[18] *616:5 0
6 *646:wbs_dat_i[18] *617:5 0
7 *585:17 *586:13 0
8 *585:17 *594:13 0.00517854
9 *585:17 *596:13 0
10 *646:wbs_adr_i[18] *646:wbs_dat_i[18] 0
11 *582:13 *585:17 0
*RES
1 wbs_dat_i[18] *585:11 47.2054 
2 *585:11 *585:17 23.7306 
3 *585:17 *646:wbs_dat_i[18] 56.5268 
*END

*D_NET *586 0.0266425
*CONN
*P wbs_dat_i[19] I
*I *646:wbs_dat_i[19] I *D CF_SRAM_1024x32_wb_wrapper
*CAP
1 wbs_dat_i[19] 0.000139219
2 *646:wbs_dat_i[19] 0.00247954
3 *586:13 0.00774201
4 *586:7 0.00794572
5 *586:5 0.00282247
6 *646:wbs_dat_i[19] *618:5 0
7 *586:13 *588:13 0
8 *586:13 *596:13 0.00551353
9 *586:13 *597:13 0
10 *646:wbs_adr_i[19] *646:wbs_dat_i[19] 0
11 *585:17 *586:13 0
*RES
1 wbs_dat_i[19] *586:5 0.883929 
2 *586:5 *586:7 51.7321 
3 *586:7 *586:13 25.1719 
4 *586:13 *646:wbs_dat_i[19] 50.4554 
*END

*D_NET *587 0.0265024
*CONN
*P wbs_dat_i[1] I
*I *646:wbs_dat_i[1] I *D CF_SRAM_1024x32_wb_wrapper
*CAP
1 wbs_dat_i[1] 0.00343322
2 *646:wbs_dat_i[1] 0.00485047
3 *587:33 0.00537737
4 *587:29 0.00396011
5 *646:wbs_dat_i[1] *646:wbs_sel_i[0] 0
6 *646:wbs_dat_i[1] *619:5 0
7 *587:29 *598:23 5.40377e-05
8 *587:29 *601:21 7.4629e-05
9 *587:29 *630:19 0.000497495
10 *587:33 *598:23 0.000320402
11 *587:33 *608:13 0.000940583
12 *587:33 *619:15 0.00297299
13 *587:33 *640:19 0.000355801
14 *646:wbs_adr_i[1] *646:wbs_dat_i[1] 0
15 *565:17 *587:33 0.00192635
16 *568:17 *587:33 0.000129601
17 *575:17 *587:29 0.000405575
18 *576:17 *587:29 0.00120382
*RES
1 wbs_dat_i[1] *587:29 25.8701 
2 *587:29 *587:33 38.7143 
3 *587:33 *646:wbs_dat_i[1] 98.875 
*END

*D_NET *588 0.0283972
*CONN
*P wbs_dat_i[20] I
*I *646:wbs_dat_i[20] I *D CF_SRAM_1024x32_wb_wrapper
*CAP
1 wbs_dat_i[20] 0.000139219
2 *646:wbs_dat_i[20] 0.00168084
3 *588:13 0.00720668
4 *588:7 0.00849802
5 *588:5 0.0031114
6 *646:wbs_dat_i[20] *620:5 0
7 *588:13 *597:13 0.00661986
8 *646:wbs_adr_i[20] *646:wbs_dat_i[20] 0
9 *547:15 *646:wbs_dat_i[20] 0.00114121
10 *566:17 *588:13 0
11 *586:13 *588:13 0
*RES
1 wbs_dat_i[20] *588:5 0.883929 
2 *588:5 *588:7 57.8036 
3 *588:7 *588:13 26.9015 
4 *588:13 *646:wbs_dat_i[20] 44.3839 
*END

*D_NET *589 0.0309885
*CONN
*P wbs_dat_i[21] I
*I *646:wbs_dat_i[21] I *D CF_SRAM_1024x32_wb_wrapper
*CAP
1 wbs_dat_i[21] 0.00175209
2 *646:wbs_dat_i[21] 0.00719837
3 *589:11 0.00979536
4 *589:9 0.00434909
5 *646:wbs_dat_i[21] *620:5 0
6 *646:wbs_dat_i[21] *621:5 0
7 *646:wbs_adr_i[18] *646:wbs_dat_i[21] 0.00789358
8 *646:wbs_adr_i[21] *646:wbs_dat_i[21] 0
9 *560:17 *646:wbs_dat_i[21] 0
10 *562:17 *646:wbs_dat_i[21] 0
*RES
1 wbs_dat_i[21] *589:9 31.8482 
2 *589:9 *589:11 52.1964 
3 *589:11 *646:wbs_dat_i[21] 48.8014 
*END

*D_NET *590 0.0279217
*CONN
*P wbs_dat_i[22] I
*I *646:wbs_dat_i[22] I *D CF_SRAM_1024x32_wb_wrapper
*CAP
1 wbs_dat_i[22] 0.00186435
2 *646:wbs_dat_i[22] 0.00344235
3 *590:13 0.011439
4 *590:9 0.00986099
5 *646:wbs_dat_i[22] wbs_dat_o[22] 0.000547011
6 *590:13 *591:13 0
7 *590:13 *593:13 0
8 *646:wbs_adr_i[22] *646:wbs_dat_i[22] 0
9 *646:wbs_adr_i[23] *646:wbs_dat_i[22] 0
10 *551:13 *590:13 0
11 *581:11 *590:13 0.000767995
*RES
1 wbs_dat_i[22] *590:9 37.0082 
2 *590:9 *590:13 26.8066 
3 *590:13 *646:wbs_dat_i[22] 69.2768 
*END

*D_NET *591 0.0287702
*CONN
*P wbs_dat_i[23] I
*I *646:wbs_dat_i[23] I *D CF_SRAM_1024x32_wb_wrapper
*CAP
1 wbs_dat_i[23] 0.0022304
2 *646:wbs_dat_i[23] 0.00313715
3 *591:13 0.0112381
4 *591:9 0.0103314
5 *646:wbs_dat_i[23] *623:7 0
6 *646:wbs_dat_i[23] *623:9 0
7 *591:13 *594:13 0
8 *646:wbs_adr_i[23] *646:wbs_dat_i[23] 0
9 *558:13 *591:9 0
10 *581:11 *591:13 0
11 *582:13 *591:13 0.00183308
12 *590:13 *591:13 0
*RES
1 wbs_dat_i[23] *591:9 43.4904 
2 *591:9 *591:13 28.4641 
3 *591:13 *646:wbs_dat_i[23] 63.2054 
*END

*D_NET *592 0.0292454
*CONN
*P wbs_dat_i[24] I
*I *646:wbs_dat_i[24] I *D CF_SRAM_1024x32_wb_wrapper
*CAP
1 wbs_dat_i[24] 0.00129448
2 *646:wbs_dat_i[24] 0.00405312
3 *592:13 0.013083
4 *592:9 0.0103244
5 *646:wbs_dat_i[24] *624:5 0
6 *592:13 *593:13 0
7 *646:wbs_adr_i[24] *646:wbs_dat_i[24] 0
8 *549:13 *592:13 0.000490359
9 *584:13 *592:13 0
*RES
1 wbs_dat_i[24] *592:9 25.2761 
2 *592:9 *592:13 30.1217 
3 *592:13 *646:wbs_dat_i[24] 81.4196 
*END

*D_NET *593 0.0327793
*CONN
*P wbs_dat_i[25] I
*I *646:wbs_dat_i[25] I *D CF_SRAM_1024x32_wb_wrapper
*CAP
1 wbs_dat_i[25] 0.00150197
2 *646:wbs_dat_i[25] 0.00375504
3 *593:13 0.0132224
4 *593:9 0.0109693
5 *646:wbs_dat_i[25] *624:5 0
6 *646:wbs_dat_i[25] *625:5 0
7 *646:wbs_adr_i[25] *646:wbs_dat_i[25] 0
8 *551:13 *593:13 0.00333053
9 *590:13 *593:13 0
10 *592:13 *593:13 0
*RES
1 wbs_dat_i[25] *593:9 31.1332 
2 *593:9 *593:13 32.2837 
3 *593:13 *646:wbs_dat_i[25] 75.3482 
*END

*D_NET *594 0.0346451
*CONN
*P wbs_dat_i[26] I
*I *646:wbs_dat_i[26] I *D CF_SRAM_1024x32_wb_wrapper
*CAP
1 wbs_dat_i[26] 0.00236244
2 *646:wbs_dat_i[26] 0.00284068
3 *594:13 0.0123708
4 *594:9 0.0118926
5 *646:wbs_dat_i[26] *626:5 0
6 *594:13 *596:13 0
7 *646:wbs_adr_i[26] *646:wbs_dat_i[26] 0
8 *585:17 *594:13 0.00517854
9 *591:13 *594:13 0
*RES
1 wbs_dat_i[26] *594:9 49.3475 
2 *594:9 *594:13 33.6529 
3 *594:13 *646:wbs_dat_i[26] 57.1339 
*END

*D_NET *595 0.0342929
*CONN
*P wbs_dat_i[27] I
*I *646:wbs_dat_i[27] I *D CF_SRAM_1024x32_wb_wrapper
*CAP
1 wbs_dat_i[27] 0.000830442
2 *646:wbs_dat_i[27] 0.00440883
3 *595:13 0.0143568
4 *595:9 0.0107784
5 *646:wbs_dat_i[27] *626:5 0
6 *646:wbs_dat_i[27] *627:5 0
7 *595:13 wbs_dat_o[20] 0
8 *646:wbs_adr_i[27] *646:wbs_dat_i[27] 0
9 *555:13 *595:13 0.00140517
10 *557:13 *595:13 0
11 *558:13 *595:13 0
12 *559:13 *595:13 0
13 *561:13 *595:13 0
14 *584:13 *595:13 0.00251316
*RES
1 wbs_dat_i[27] *595:9 18.1868 
2 *595:9 *595:13 35.3105 
3 *595:13 *646:wbs_dat_i[27] 88.0982 
*END

*D_NET *596 0.0367131
*CONN
*P wbs_dat_i[28] I
*I *646:wbs_dat_i[28] I *D CF_SRAM_1024x32_wb_wrapper
*CAP
1 wbs_dat_i[28] 0.000112103
2 *646:wbs_dat_i[28] 0.00254917
3 *596:13 0.0130317
4 *596:7 0.0129385
5 *596:5 0.00256805
6 *646:wbs_dat_i[28] *628:5 0
7 *596:13 *597:13 0
8 *646:wbs_adr_i[28] *646:wbs_dat_i[28] 0
9 *550:11 *646:wbs_dat_i[28] 0
10 *585:17 *596:13 0
11 *586:13 *596:13 0.00551353
12 *594:13 *596:13 0
*RES
1 wbs_dat_i[28] *596:5 0.883929 
2 *596:5 *596:7 50.5179 
3 *596:7 *596:13 40.4501 
4 *596:13 *646:wbs_dat_i[28] 51.0625 
*END

*D_NET *597 0.0383841
*CONN
*P wbs_dat_i[29] I
*I *646:wbs_dat_i[29] I *D CF_SRAM_1024x32_wb_wrapper
*CAP
1 wbs_dat_i[29] 9.32553e-05
2 *646:wbs_dat_i[29] 0.00224355
3 *597:13 0.0128217
4 *597:7 0.0133341
5 *597:5 0.00284927
6 *646:wbs_dat_i[29] *628:5 0
7 *646:wbs_dat_i[29] *629:7 0
8 *646:wbs_dat_i[29] *629:9 0
9 *646:wbs_adr_i[29] *646:wbs_dat_i[29] 0.00042239
10 *583:11 *646:wbs_dat_i[29] 0
11 *586:13 *597:13 0
12 *588:13 *597:13 0.00661986
13 *596:13 *597:13 0
*RES
1 wbs_dat_i[29] *597:5 0.883929 
2 *597:5 *597:7 56.5893 
3 *597:7 *597:13 42.1797 
4 *597:13 *646:wbs_dat_i[29] 44.9911 
*END

*D_NET *598 0.0252559
*CONN
*P wbs_dat_i[2] I
*I *646:wbs_dat_i[2] I *D CF_SRAM_1024x32_wb_wrapper
*CAP
1 wbs_dat_i[2] 0.0018232
2 *646:wbs_dat_i[2] 0.00476045
3 *598:23 0.00658365
4 *646:wbs_dat_i[2] *646:wbs_sel_i[2] 0
5 *646:wbs_dat_i[2] *630:5 0
6 *598:23 wbs_dat_o[1] 0.000412255
7 *598:23 *601:21 0.00172533
8 *598:23 *608:5 4.62813e-05
9 *598:23 *619:15 0.000345496
10 *598:23 *630:19 0.00211863
11 *598:23 *640:19 0.000101825
12 *598:23 *642:23 0.00161484
13 *598:23 *645:17 0.00096512
14 *646:wbs_adr_i[2] *646:wbs_dat_i[2] 0
15 *568:17 *598:23 0.00379488
16 *575:17 *598:23 9.54798e-06
17 *576:17 *598:23 0.00057997
18 *587:29 *598:23 5.40377e-05
19 *587:33 *598:23 0.000320402
*RES
1 wbs_dat_i[2] *598:23 45.978 
2 *598:23 *646:wbs_dat_i[2] 97.6607 
*END

*D_NET *599 0.0396489
*CONN
*P wbs_dat_i[30] I
*I *646:wbs_dat_i[30] I *D CF_SRAM_1024x32_wb_wrapper
*CAP
1 wbs_dat_i[30] 0.00979553
2 *646:wbs_dat_i[30] 0.0015117
3 *599:15 0.00402998
4 *599:13 0.0123138
5 *646:wbs_dat_i[30] *631:5 0
6 *599:13 wbs_dat_o[17] 0.000970462
7 *599:13 wbs_dat_o[18] 0.000975874
8 *599:13 wbs_dat_o[19] 0.0024905
9 *599:13 wbs_dat_o[21] 0.00194476
10 *599:13 wbs_dat_o[22] 7.39041e-05
11 *599:13 wbs_dat_o[24] 0.00138159
12 *599:13 wbs_dat_o[27] 0.00105979
13 *599:15 *631:5 0.00307829
14 *646:wbs_adr_i[29] *599:13 2.27357e-05
15 *646:wbs_adr_i[30] *646:wbs_dat_i[30] 0
16 *646:wbs_adr_i[30] *599:15 0
17 *551:13 *599:15 0
18 *561:13 *599:13 0
19 *566:9 *599:13 0
*RES
1 wbs_dat_i[30] *599:13 47.3971 
2 *599:13 *599:15 70.1071 
3 *599:15 *646:wbs_dat_i[30] 30.4018 
*END

*D_NET *600 0.0660959
*CONN
*P wbs_dat_i[31] I
*I *646:wbs_dat_i[31] I *D CF_SRAM_1024x32_wb_wrapper
*CAP
1 wbs_dat_i[31] 0.000159427
2 *646:wbs_dat_i[31] 0.00149247
3 *600:15 0.0053954
4 *600:13 0.00390293
5 *600:11 0.00290176
6 *600:9 0.00306119
7 *646:wbs_dat_i[31] *631:5 0
8 *646:wbs_dat_i[31] *632:7 0
9 *646:wbs_dat_i[31] *632:9 0
10 *600:11 wbs_dat_o[27] 0.00367542
11 *600:11 *629:13 9.46571e-05
12 *600:11 *631:9 0.022224
13 *600:11 *632:13 0.0231887
14 *600:15 *632:9 0
15 *646:wbs_adr_i[31] *646:wbs_dat_i[31] 0
16 *584:13 *600:15 0
*RES
1 wbs_dat_i[31] *600:9 6.48214 
2 *600:9 *600:11 219.446 
3 *600:11 *600:13 4.5 
4 *600:13 *600:15 73.2946 
5 *600:15 *646:wbs_dat_i[31] 29.5804 
*END

*D_NET *601 0.0254814
*CONN
*P wbs_dat_i[3] I
*I *646:wbs_dat_i[3] I *D CF_SRAM_1024x32_wb_wrapper
*CAP
1 wbs_dat_i[3] 0.00214796
2 *646:wbs_dat_i[3] 0.00338256
3 *601:21 0.00553051
4 *646:wbs_dat_i[3] wbs_dat_o[3] 0.00160524
5 *646:wbs_dat_i[3] *646:wbs_dat_i[6] 0.00123391
6 *646:wbs_dat_i[3] *646:wbs_sel_i[3] 0
7 *646:wbs_dat_i[3] *604:7 0.00310519
8 *601:21 wbs_dat_o[3] 0
9 *601:21 *646:wbs_sel_i[0] 1.49949e-05
10 *601:21 *602:13 0.00121319
11 *601:21 *630:19 0.00373377
12 *601:21 *640:19 0.000518255
13 *601:21 *642:23 8.37135e-05
14 *601:21 *645:21 0.000428596
15 *646:wbs_adr_i[3] *646:wbs_dat_i[3] 0
16 *568:17 *601:21 0.000228075
17 *575:21 *601:21 0.000455514
18 *587:29 *601:21 7.4629e-05
19 *598:23 *601:21 0.00172533
*RES
1 wbs_dat_i[3] *601:21 46.8632 
2 *601:21 *646:wbs_dat_i[3] 97.0536 
*END

*D_NET *602 0.0172934
*CONN
*P wbs_dat_i[4] I
*I *646:wbs_dat_i[4] I *D CF_SRAM_1024x32_wb_wrapper
*CAP
1 wbs_dat_i[4] 0.00254656
2 *646:wbs_dat_i[4] 0.00473542
3 *602:13 0.00728197
4 *646:wbs_dat_i[4] *634:7 0
5 *646:wbs_dat_i[4] *634:9 0
6 *602:13 wbs_dat_o[4] 0
7 *602:13 *646:wbs_we_i 8.79856e-06
8 *602:13 *603:19 0.000958966
9 *602:13 *630:19 7.69776e-06
10 *602:13 *642:23 0
11 *646:wbs_adr_i[4] *646:wbs_dat_i[4] 0
12 *568:17 *602:13 0.000540758
13 *601:21 *602:13 0.00121319
*RES
1 wbs_dat_i[4] *602:13 19.6496 
2 *602:13 *646:wbs_dat_i[4] 97.2054 
*END

*D_NET *603 0.016896
*CONN
*P wbs_dat_i[5] I
*I *646:wbs_dat_i[5] I *D CF_SRAM_1024x32_wb_wrapper
*CAP
1 wbs_dat_i[5] 0.00109997
2 *646:wbs_dat_i[5] 0.00368341
3 *603:19 0.00478337
4 *646:wbs_dat_i[5] *605:9 0.00113237
5 *646:wbs_dat_i[5] *605:11 0.00191069
6 *646:wbs_dat_i[5] *635:11 0
7 *603:19 *643:11 0.0009217
8 *646:wbs_adr_i[2] *603:19 0
9 *646:wbs_adr_i[5] *646:wbs_dat_i[5] 0
10 *568:17 *603:19 0.000543621
11 *569:13 *603:19 0.000915339
12 *570:13 *603:19 0.000913165
13 *571:11 *603:19 3.34254e-05
14 *602:13 *603:19 0.000958966
*RES
1 wbs_dat_i[5] *603:19 23.234 
2 *603:19 *646:wbs_dat_i[5] 98.4196 
*END

*D_NET *604 0.015382
*CONN
*P wbs_dat_i[6] I
*I *646:wbs_dat_i[6] I *D CF_SRAM_1024x32_wb_wrapper
*CAP
1 wbs_dat_i[6] 4.32496e-05
2 *646:wbs_dat_i[6] 0.00246005
3 *604:7 0.0049618
4 *604:5 0.002545
5 *646:wbs_dat_i[6] wbs_dat_o[3] 0.000183249
6 *646:wbs_dat_i[6] *646:wbs_sel_i[3] 0
7 *646:wbs_dat_i[6] *636:15 0
8 *604:7 wbs_dat_o[3] 0.000849519
9 *604:7 *646:wbs_sel_i[3] 0
10 *646:wbs_adr_i[3] *604:7 0
11 *646:wbs_adr_i[6] *646:wbs_dat_i[6] 0
12 *646:wbs_adr_i[7] *646:wbs_dat_i[6] 0
13 *646:wbs_dat_i[3] *646:wbs_dat_i[6] 0.00123391
14 *646:wbs_dat_i[3] *604:7 0.00310519
*RES
1 wbs_dat_i[6] *604:5 0.883929 
2 *604:5 *604:7 72.5357 
3 *604:7 *646:wbs_dat_i[6] 40.1036 
*END

*D_NET *605 0.0130084
*CONN
*P wbs_dat_i[7] I
*I *646:wbs_dat_i[7] I *D CF_SRAM_1024x32_wb_wrapper
*CAP
1 wbs_dat_i[7] 0.00117824
2 *646:wbs_dat_i[7] 0.000713811
3 *605:11 0.00333509
4 *605:9 0.00379952
5 *646:wbs_dat_i[7] *635:11 0.000116197
6 *646:wbs_dat_i[7] *636:15 0.000795494
7 *646:wbs_dat_i[7] *637:11 0
8 *605:11 *635:11 2.69575e-05
9 *646:wbs_adr_i[5] *605:9 0
10 *646:wbs_adr_i[6] *605:9 0
11 *646:wbs_adr_i[6] *605:11 0
12 *646:wbs_adr_i[7] *646:wbs_dat_i[7] 0
13 *646:wbs_dat_i[5] *605:9 0.00113237
14 *646:wbs_dat_i[5] *605:11 0.00191069
15 *572:9 *605:9 0
*RES
1 wbs_dat_i[7] *605:9 30.8304 
2 *605:9 *605:11 68.5893 
3 *605:11 *646:wbs_dat_i[7] 12.5182 
*END

*D_NET *606 0.0102708
*CONN
*P wbs_dat_i[8] I
*I *646:wbs_dat_i[8] I *D CF_SRAM_1024x32_wb_wrapper
*CAP
1 wbs_dat_i[8] 0.0016268
2 *646:wbs_dat_i[8] 0.00350861
3 *606:9 0.00513541
4 *646:wbs_dat_i[8] *638:5 0
5 *646:wbs_adr_i[8] *646:wbs_dat_i[8] 0
*RES
1 wbs_dat_i[8] *606:9 32.4732 
2 *606:9 *646:wbs_dat_i[8] 72.1696 
*END

*D_NET *607 0.0110954
*CONN
*P wbs_dat_i[9] I
*I *646:wbs_dat_i[9] I *D CF_SRAM_1024x32_wb_wrapper
*CAP
1 wbs_dat_i[9] 0.00101679
2 *646:wbs_dat_i[9] 0.00429415
3 *607:13 0.00531094
4 *646:wbs_dat_i[9] *639:5 0
5 *607:13 wbs_dat_o[10] 0.000391142
6 *607:13 wbs_dat_o[9] 8.24032e-05
7 *646:wbs_adr_i[10] *646:wbs_dat_i[9] 0
8 *646:wbs_adr_i[10] *607:13 0
9 *646:wbs_adr_i[9] *646:wbs_dat_i[9] 0
*RES
1 wbs_dat_i[9] *607:13 22.6725 
2 *607:13 *646:wbs_dat_i[9] 88.7054 
*END

*D_NET *608 0.0272082
*CONN
*P wbs_dat_o[0] O
*I *646:wbs_dat_o[0] O *D CF_SRAM_1024x32_wb_wrapper
*CAP
1 wbs_dat_o[0] 0.00141159
2 *646:wbs_dat_o[0] 0.00488663
3 *608:13 0.00297896
4 *608:5 0.006454
5 wbs_dat_o[0] wbs_dat_o[1] 0.00154224
6 wbs_dat_o[0] *640:15 0.00497723
7 wbs_dat_o[0] *642:23 0.000493839
8 wbs_dat_o[0] *645:17 0.000891431
9 *608:5 *646:wbs_sel_i[0] 0
10 *608:13 *640:19 0.000177339
11 *608:13 *645:21 0
12 *646:wbs_dat_i[0] *608:5 0
13 *565:17 *608:13 0.00127122
14 *568:17 *608:13 0.00113689
15 *587:33 *608:13 0.000940583
16 *598:23 *608:5 4.62813e-05
*RES
1 *646:wbs_dat_o[0] *608:5 99.4821 
2 *608:5 *608:13 48.5982 
3 *608:13 wbs_dat_o[0] 16.8817 
*END

*D_NET *609 0.014183
*CONN
*P wbs_dat_o[10] O
*I *646:wbs_dat_o[10] O *D CF_SRAM_1024x32_wb_wrapper
*CAP
1 wbs_dat_o[10] 0.00243145
2 *646:wbs_dat_o[10] 0.00356037
3 *609:5 0.00599181
4 wbs_dat_o[10] wbs_dat_o[11] 0.000832899
5 wbs_dat_o[10] *612:5 0
6 *646:wbs_adr_i[10] wbs_dat_o[10] 0
7 *646:wbs_adr_i[10] *609:5 0
8 *646:wbs_adr_i[11] wbs_dat_o[10] 0
9 *646:wbs_adr_i[11] *609:5 0
10 *646:wbs_dat_i[10] *609:5 0
11 *544:13 wbs_dat_o[10] 0.000596699
12 *545:11 wbs_dat_o[10] 0
13 *580:13 wbs_dat_o[10] 0.000378667
14 *607:13 wbs_dat_o[10] 0.000391142
*RES
1 *646:wbs_dat_o[10] *609:5 72.1696 
2 *609:5 wbs_dat_o[10] 41.8364 
*END

*D_NET *610 0.0166356
*CONN
*P wbs_dat_o[11] O
*I *646:wbs_dat_o[11] O *D CF_SRAM_1024x32_wb_wrapper
*CAP
1 wbs_dat_o[11] 0.000970971
2 *646:wbs_dat_o[11] 0.00142778
3 *610:9 0.00439501
4 *610:7 0.00485182
5 wbs_dat_o[11] wbs_dat_o[15] 0.000561391
6 wbs_dat_o[11] *615:5 2.83284e-06
7 *610:9 wbs_dat_o[9] 0
8 wbs_dat_o[10] wbs_dat_o[11] 0.000832899
9 *646:wbs_adr_i[12] *610:7 0
10 *646:wbs_adr_i[12] *610:9 0
11 *646:wbs_dat_i[11] *610:7 0
12 *646:wbs_dat_i[11] *610:9 0
13 *545:11 wbs_dat_o[11] 5.44309e-05
14 *546:13 wbs_dat_o[11] 0.00308409
15 *580:13 wbs_dat_o[11] 0.000454328
*RES
1 *646:wbs_dat_o[11] *610:7 29.5804 
2 *610:7 *610:9 70.1071 
3 *610:9 wbs_dat_o[11] 16.2427 
*END

*D_NET *611 0.0194336
*CONN
*P wbs_dat_o[12] O
*I *646:wbs_dat_o[12] O *D CF_SRAM_1024x32_wb_wrapper
*CAP
1 wbs_dat_o[12] 0.00908119
2 *646:wbs_dat_o[12] 0.00908119
3 wbs_dat_o[12] wbs_dat_o[14] 0.000100938
4 wbs_dat_o[12] wbs_dat_o[18] 5.85882e-05
5 *646:wbs_dat_i[12] wbs_dat_o[12] 0.00111172
*RES
1 *646:wbs_dat_o[12] wbs_dat_o[12] 34.9803 
*END

*D_NET *612 0.0181069
*CONN
*P wbs_dat_o[13] O
*I *646:wbs_dat_o[13] O *D CF_SRAM_1024x32_wb_wrapper
*CAP
1 wbs_dat_o[13] 6.28234e-05
2 *646:wbs_dat_o[13] 0.00517971
3 *612:9 0.00267629
4 *612:7 0.00261347
5 *612:5 0.00517971
6 *612:9 wbs_dat_o[14] 0.0018327
7 wbs_dat_o[10] *612:5 0
8 *646:wbs_adr_i[14] *612:5 0
9 *646:wbs_dat_i[13] *612:5 0
10 *577:13 *612:5 0
11 *578:11 *612:9 0.000562174
12 *580:15 *612:5 0
*RES
1 *646:wbs_dat_o[13] *612:5 102.518 
2 *612:5 *612:7 4.5 
3 *612:7 *612:9 49.8214 
4 *612:9 wbs_dat_o[13] 5.66071 
*END

*D_NET *613 0.0210082
*CONN
*P wbs_dat_o[14] O
*I *646:wbs_dat_o[14] O *D CF_SRAM_1024x32_wb_wrapper
*CAP
1 wbs_dat_o[14] 0.00248844
2 *646:wbs_dat_o[14] 0.00501127
3 *613:5 0.00749971
4 wbs_dat_o[14] wbs_dat_o[17] 8.63795e-05
5 wbs_dat_o[14] wbs_dat_o[18] 0.000739372
6 wbs_dat_o[14] wbs_dat_o[21] 0.00103072
7 wbs_dat_o[12] wbs_dat_o[14] 0.000100938
8 *646:wbs_adr_i[14] *613:5 0
9 *646:wbs_adr_i[15] *613:5 0
10 *646:wbs_dat_i[14] *613:5 0
11 *545:11 wbs_dat_o[14] 0.000168416
12 *578:11 wbs_dat_o[14] 0.000734097
13 *579:13 wbs_dat_o[14] 0.00131616
14 *612:9 wbs_dat_o[14] 0.0018327
*RES
1 *646:wbs_dat_o[14] *613:5 102.062 
2 *613:5 wbs_dat_o[14] 18.4672 
*END

*D_NET *614 0.0270213
*CONN
*P wbs_dat_o[15] O
*I *646:wbs_dat_o[15] O *D CF_SRAM_1024x32_wb_wrapper
*CAP
1 wbs_dat_o[15] 0.00152765
2 *646:wbs_dat_o[15] 0.0048176
3 *614:5 0.00634525
4 wbs_dat_o[15] wbs_dat_o[16] 0.00706813
5 wbs_dat_o[15] wbs_dat_o[19] 0.00496456
6 wbs_dat_o[15] *626:5 0.000103364
7 wbs_dat_o[11] wbs_dat_o[15] 0.000561391
8 *646:wbs_adr_i[15] *614:5 0
9 *646:wbs_adr_i[16] *614:5 0
10 *646:wbs_dat_i[15] *614:5 0
11 *646:wbs_dat_i[16] *614:5 0
12 *546:13 wbs_dat_o[15] 6.31001e-05
13 *580:13 wbs_dat_o[15] 0.00157029
*RES
1 *646:wbs_dat_o[15] *614:5 98.4196 
2 *614:5 wbs_dat_o[15] 23.3575 
*END

*D_NET *615 0.0298596
*CONN
*P wbs_dat_o[16] O
*I *646:wbs_dat_o[16] O *D CF_SRAM_1024x32_wb_wrapper
*CAP
1 wbs_dat_o[16] 0.00159432
2 *646:wbs_dat_o[16] 0.00488932
3 *615:5 0.00648364
4 wbs_dat_o[16] wbs_dat_o[17] 0.00817982
5 wbs_dat_o[16] wbs_dat_o[19] 0.00103803
6 wbs_dat_o[11] *615:5 2.83284e-06
7 wbs_dat_o[15] wbs_dat_o[16] 0.00706813
8 *646:wbs_adr_i[17] *615:5 0
9 *646:wbs_dat_i[16] *615:5 0
10 *646:wbs_dat_i[17] *615:5 0
11 *546:13 wbs_dat_o[16] 0.000543613
12 *579:13 wbs_dat_o[16] 5.9934e-05
*RES
1 *646:wbs_dat_o[16] *615:5 99.0268 
2 *615:5 wbs_dat_o[16] 24.4799 
*END

*D_NET *616 0.0325267
*CONN
*P wbs_dat_o[17] O
*I *646:wbs_dat_o[17] O *D CF_SRAM_1024x32_wb_wrapper
*CAP
1 wbs_dat_o[17] 0.00185173
2 *646:wbs_dat_o[17] 0.00492916
3 *616:5 0.0067809
4 wbs_dat_o[17] wbs_dat_o[18] 0.00920942
5 wbs_dat_o[17] wbs_dat_o[19] 0.000287157
6 wbs_dat_o[14] wbs_dat_o[17] 8.63795e-05
7 wbs_dat_o[16] wbs_dat_o[17] 0.00817982
8 *646:wbs_adr_i[18] *616:5 0
9 *646:wbs_dat_i[17] *616:5 0
10 *646:wbs_dat_i[18] *616:5 0
11 *579:13 wbs_dat_o[17] 0.000231619
12 *599:13 wbs_dat_o[17] 0.000970462
*RES
1 *646:wbs_dat_o[17] *616:5 99.6339 
2 *616:5 wbs_dat_o[17] 25.5303 
*END

*D_NET *617 0.0342184
*CONN
*P wbs_dat_o[18] O
*I *646:wbs_dat_o[18] O *D CF_SRAM_1024x32_wb_wrapper
*CAP
1 wbs_dat_o[18] 0.00219532
2 *646:wbs_dat_o[18] 0.004985
3 *617:5 0.00718032
4 wbs_dat_o[18] wbs_dat_o[21] 0.00887446
5 wbs_dat_o[12] wbs_dat_o[18] 5.85882e-05
6 wbs_dat_o[14] wbs_dat_o[18] 0.000739372
7 wbs_dat_o[17] wbs_dat_o[18] 0.00920942
8 *646:wbs_adr_i[19] *617:5 0
9 *646:wbs_dat_i[18] *617:5 0
10 *599:13 wbs_dat_o[18] 0.000975874
*RES
1 *646:wbs_dat_o[18] *617:5 100.241 
2 *617:5 wbs_dat_o[18] 26.9914 
*END

*D_NET *618 0.0293988
*CONN
*P wbs_dat_o[19] O
*I *646:wbs_dat_o[19] O *D CF_SRAM_1024x32_wb_wrapper
*CAP
1 wbs_dat_o[19] 0.00378806
2 *646:wbs_dat_o[19] 0.0048564
3 *618:5 0.00864446
4 wbs_dat_o[15] wbs_dat_o[19] 0.00496456
5 wbs_dat_o[16] wbs_dat_o[19] 0.00103803
6 wbs_dat_o[17] wbs_dat_o[19] 0.000287157
7 *646:wbs_adr_i[19] *618:5 0
8 *646:wbs_adr_i[20] *618:5 0
9 *646:wbs_adr_i[29] wbs_dat_o[19] 0.000581019
10 *646:wbs_dat_i[19] *618:5 0
11 *547:13 *618:5 0
12 *553:13 wbs_dat_o[19] 0.00192999
13 *561:13 wbs_dat_o[19] 0
14 *580:13 wbs_dat_o[19] 0.000818664
15 *599:13 wbs_dat_o[19] 0.0024905
*RES
1 *646:wbs_dat_o[19] *618:5 97.8125 
2 *618:5 wbs_dat_o[19] 31.0775 
*END

*D_NET *619 0.0274872
*CONN
*P wbs_dat_o[1] O
*I *646:wbs_dat_o[1] O *D CF_SRAM_1024x32_wb_wrapper
*CAP
1 wbs_dat_o[1] 0.000981321
2 *646:wbs_dat_o[1] 0.00481702
3 *619:15 0.00153877
4 *619:5 0.00537447
5 wbs_dat_o[1] *641:9 0
6 wbs_dat_o[1] *642:23 0.0022359
7 wbs_dat_o[1] *645:17 0.00280219
8 *619:5 wbs_dat_o[5] 0
9 *619:5 *646:wbs_sel_i[1] 0
10 *619:5 *635:13 0
11 *619:15 *640:19 0.00253783
12 *619:15 *642:23 0.000358973
13 wbs_dat_o[0] wbs_dat_o[1] 0.00154224
14 *646:wbs_adr_i[2] *619:5 0
15 *646:wbs_dat_i[1] *619:5 0
16 *565:17 *619:15 0.000122159
17 *568:17 wbs_dat_o[1] 0.00144555
18 *587:33 *619:15 0.00297299
19 *598:23 wbs_dat_o[1] 0.000412255
20 *598:23 *619:15 0.000345496
*RES
1 *646:wbs_dat_o[1] *619:5 98.5714 
2 *619:5 *619:15 44.3118 
3 *619:15 wbs_dat_o[1] 13.8021 
*END

*D_NET *620 0.0401422
*CONN
*P wbs_dat_o[20] O
*I *646:wbs_dat_o[20] O *D CF_SRAM_1024x32_wb_wrapper
*CAP
1 wbs_dat_o[20] 0.00324468
2 *646:wbs_dat_o[20] 0.00454789
3 *620:5 0.00779256
4 *646:wbs_adr_i[21] *620:5 0
5 *646:wbs_dat_i[20] *620:5 0
6 *646:wbs_dat_i[21] *620:5 0
7 *547:13 *620:5 0
8 *547:15 *620:5 0
9 *553:13 wbs_dat_o[20] 0.000152727
10 *555:13 wbs_dat_o[20] 0.0119445
11 *556:9 wbs_dat_o[20] 0
12 *557:13 wbs_dat_o[20] 0.0124599
13 *595:13 wbs_dat_o[20] 0
*RES
1 *646:wbs_dat_o[20] *620:5 91.7411 
2 *620:5 wbs_dat_o[20] 39.0967 
*END

*D_NET *621 0.0428889
*CONN
*P wbs_dat_o[21] O
*I *646:wbs_dat_o[21] O *D CF_SRAM_1024x32_wb_wrapper
*CAP
1 wbs_dat_o[21] 0.00349515
2 *646:wbs_dat_o[21] 0.00522605
3 *621:5 0.00872121
4 wbs_dat_o[21] wbs_dat_o[24] 0.0121266
5 wbs_dat_o[21] *623:13 0.00146993
6 wbs_dat_o[14] wbs_dat_o[21] 0.00103072
7 wbs_dat_o[18] wbs_dat_o[21] 0.00887446
8 *646:wbs_adr_i[22] *621:5 0
9 *646:wbs_dat_i[21] *621:5 0
10 *599:13 wbs_dat_o[21] 0.00194476
*RES
1 *646:wbs_dat_o[21] *621:5 100.848 
2 *621:5 wbs_dat_o[21] 31.0903 
*END

*D_NET *622 0.037388
*CONN
*P wbs_dat_o[22] O
*I *646:wbs_dat_o[22] O *D CF_SRAM_1024x32_wb_wrapper
*CAP
1 wbs_dat_o[22] 0.0168227
2 *646:wbs_dat_o[22] 0.0168227
3 wbs_dat_o[22] wbs_dat_o[24] 0.000227723
4 *646:wbs_adr_i[22] wbs_dat_o[22] 0.000288548
5 *646:wbs_adr_i[29] wbs_dat_o[22] 0.00260542
6 *646:wbs_dat_i[22] wbs_dat_o[22] 0.000547011
7 *599:13 wbs_dat_o[22] 7.39041e-05
*RES
1 *646:wbs_dat_o[22] wbs_dat_o[22] 38.221 
*END

*D_NET *623 0.0373101
*CONN
*P wbs_dat_o[23] O
*I *646:wbs_dat_o[23] O *D CF_SRAM_1024x32_wb_wrapper
*CAP
1 wbs_dat_o[23] 0.000339045
2 *646:wbs_dat_o[23] 0.0014629
3 *623:13 0.00557661
4 *623:11 0.00523756
5 *623:9 0.0036471
6 *623:7 0.00511
7 *623:13 wbs_dat_o[24] 0.000379544
8 *623:13 *625:9 0.0140874
9 wbs_dat_o[21] *623:13 0.00146993
10 *646:wbs_adr_i[24] *623:7 0
11 *646:wbs_adr_i[24] *623:9 0
12 *646:wbs_dat_i[23] *623:7 0
13 *646:wbs_dat_i[23] *623:9 0
14 *581:11 *623:9 0
*RES
1 *646:wbs_dat_o[23] *623:7 29.5804 
2 *623:7 *623:9 71.7768 
3 *623:9 *623:11 4.5 
4 *623:11 *623:13 145.107 
5 *623:13 wbs_dat_o[23] 7.08929 
*END

*D_NET *624 0.0560573
*CONN
*P wbs_dat_o[24] O
*I *646:wbs_dat_o[24] O *D CF_SRAM_1024x32_wb_wrapper
*CAP
1 wbs_dat_o[24] 0.0056286
2 *646:wbs_dat_o[24] 0.00514638
3 *624:5 0.010775
4 wbs_dat_o[24] wbs_dat_o[27] 0.0154341
5 wbs_dat_o[24] *625:9 0.00266031
6 wbs_dat_o[24] *626:9 0.0022975
7 wbs_dat_o[21] wbs_dat_o[24] 0.0121266
8 wbs_dat_o[22] wbs_dat_o[24] 0.000227723
9 *646:wbs_adr_i[24] *624:5 0
10 *646:wbs_adr_i[25] *624:5 0
11 *646:wbs_dat_i[24] *624:5 0
12 *646:wbs_dat_i[25] *624:5 0
13 *549:13 *624:5 0
14 *599:13 wbs_dat_o[24] 0.00138159
15 *623:13 wbs_dat_o[24] 0.000379544
*RES
1 *646:wbs_dat_o[24] *624:5 101.455 
2 *624:5 wbs_dat_o[24] 35.4749 
*END

*D_NET *625 0.0506044
*CONN
*P wbs_dat_o[25] O
*I *646:wbs_dat_o[25] O *D CF_SRAM_1024x32_wb_wrapper
*CAP
1 wbs_dat_o[25] 0.0002268
2 *646:wbs_dat_o[25] 0.00513323
3 *625:9 0.00331466
4 *625:7 0.00308786
5 *625:5 0.00513323
6 *625:9 wbs_dat_o[27] 0.000128759
7 *625:9 *626:9 0.0168321
8 wbs_dat_o[24] *625:9 0.00266031
9 *646:wbs_adr_i[26] *625:5 0
10 *646:wbs_dat_i[25] *625:5 0
11 *549:13 *625:5 0
12 *582:9 *625:5 0
13 *623:13 *625:9 0.0140874
*RES
1 *646:wbs_dat_o[25] *625:5 101 
2 *625:5 *625:7 4.5 
3 *625:7 *625:9 165.232 
4 *625:9 wbs_dat_o[25] 6.375 
*END

*D_NET *626 0.0534559
*CONN
*P wbs_dat_o[26] O
*I *646:wbs_dat_o[26] O *D CF_SRAM_1024x32_wb_wrapper
*CAP
1 wbs_dat_o[26] 0.000235697
2 *646:wbs_dat_o[26] 0.00512671
3 *626:9 0.00314997
4 *626:7 0.00291428
5 *626:5 0.00512671
6 *626:9 wbs_dat_o[27] 0.000379544
7 *626:9 *628:13 0.0172901
8 wbs_dat_o[15] *626:5 0.000103364
9 wbs_dat_o[24] *626:9 0.0022975
10 *646:wbs_adr_i[26] *626:5 0
11 *646:wbs_adr_i[27] *626:5 0
12 *646:wbs_dat_i[26] *626:5 0
13 *646:wbs_dat_i[27] *626:5 0
14 *625:9 *626:9 0.0168321
*RES
1 *646:wbs_dat_o[26] *626:5 101.304 
2 *626:5 *626:7 4.5 
3 *626:7 *626:9 174.679 
4 *626:9 wbs_dat_o[26] 6.48214 
*END

*D_NET *627 0.0603153
*CONN
*P wbs_dat_o[27] O
*I *646:wbs_dat_o[27] O *D CF_SRAM_1024x32_wb_wrapper
*CAP
1 wbs_dat_o[27] 0.00855892
2 *646:wbs_dat_o[27] 0.00501789
3 *627:5 0.0135768
4 wbs_dat_o[27] *628:13 0.00432704
5 wbs_dat_o[27] *629:13 0.000225428
6 wbs_dat_o[27] *631:9 0.00349452
7 wbs_dat_o[27] *632:13 0.00396328
8 wbs_dat_o[24] wbs_dat_o[27] 0.0154341
9 *646:wbs_adr_i[16] *627:5 0.000473839
10 *646:wbs_adr_i[28] *627:5 0
11 *646:wbs_dat_i[27] *627:5 0
12 *550:9 *627:5 0
13 *550:11 *627:5 0
14 *599:13 wbs_dat_o[27] 0.00105979
15 *600:11 wbs_dat_o[27] 0.00367542
16 *625:9 wbs_dat_o[27] 0.000128759
17 *626:9 wbs_dat_o[27] 0.000379544
*RES
1 *646:wbs_dat_o[27] *627:5 102.062 
2 *627:5 wbs_dat_o[27] 40.9851 
*END

*D_NET *628 0.0607437
*CONN
*P wbs_dat_o[28] O
*I *646:wbs_dat_o[28] O *D CF_SRAM_1024x32_wb_wrapper
*CAP
1 wbs_dat_o[28] 0.000156649
2 *646:wbs_dat_o[28] 0.00287466
3 *628:13 0.00347112
4 *628:11 0.00450929
5 *628:5 0.00406948
6 *628:13 *629:13 0.000182325
7 *628:13 *631:9 0.0193461
8 wbs_dat_o[27] *628:13 0.00432704
9 *646:wbs_dat_i[28] *628:5 0
10 *646:wbs_dat_i[29] *628:5 0
11 *550:9 *628:11 0
12 *550:11 *628:11 0
13 *583:9 *628:11 1.22401e-05
14 *583:11 *628:5 0.00328742
15 *583:11 *628:11 0.00121727
16 *626:9 *628:13 0.0172901
*RES
1 *646:wbs_dat_o[28] *628:5 72.1696 
2 *628:5 *628:11 34.5982 
3 *628:11 *628:13 194.804 
4 *628:13 wbs_dat_o[28] 6.07143 
*END

*D_NET *629 0.0467632
*CONN
*P wbs_dat_o[29] O
*I *646:wbs_dat_o[29] O *D CF_SRAM_1024x32_wb_wrapper
*CAP
1 wbs_dat_o[29] 0.000176614
2 *646:wbs_dat_o[29] 0.00147306
3 *629:13 0.0068052
4 *629:11 0.00662858
5 *629:9 0.00383112
6 *629:7 0.00530418
7 *629:13 *631:9 0.000188271
8 *629:13 *632:13 0.0204371
9 wbs_dat_o[27] *629:13 0.000225428
10 *646:wbs_adr_i[29] *629:7 0.000377015
11 *646:wbs_adr_i[29] *629:9 0.00103975
12 *646:wbs_adr_i[30] *629:7 0
13 *646:wbs_adr_i[30] *629:9 0
14 *646:wbs_dat_i[29] *629:7 0
15 *646:wbs_dat_i[29] *629:9 0
16 *551:13 *629:9 0
17 *600:11 *629:13 9.46571e-05
18 *628:13 *629:13 0.000182325
*RES
1 *646:wbs_dat_o[29] *629:7 29.5804 
2 *629:7 *629:9 73.9018 
3 *629:9 *629:11 4.5 
4 *629:11 *629:13 203.839 
5 *629:13 wbs_dat_o[29] 6.07143 
*END

*D_NET *630 0.0235381
*CONN
*P wbs_dat_o[2] O
*I *646:wbs_dat_o[2] O *D CF_SRAM_1024x32_wb_wrapper
*CAP
1 wbs_dat_o[2] 0.000344936
2 *646:wbs_dat_o[2] 0.00473809
3 *630:19 0.00204976
4 *630:5 0.00644291
5 wbs_dat_o[2] *642:23 0
6 wbs_dat_o[2] *645:17 0
7 *630:5 *646:wbs_sel_i[2] 0
8 *630:19 *640:19 4.31369e-05
9 *630:19 *642:23 0.00036194
10 *630:19 *645:21 0.000512301
11 *646:wbs_dat_i[2] *630:5 0
12 *540:13 *630:19 0.000629528
13 *575:21 *630:19 0.000265517
14 *576:17 *630:19 0.000443451
15 *576:21 *630:19 0.00134898
16 *587:29 *630:19 0.000497495
17 *598:23 *630:19 0.00211863
18 *601:21 *630:19 0.00373377
19 *602:13 *630:19 7.69776e-06
*RES
1 *646:wbs_dat_o[2] *630:5 97.3571 
2 *630:5 *630:19 47.2535 
3 *630:19 wbs_dat_o[2] 6.08036 
*END

*D_NET *631 0.0636861
*CONN
*P wbs_dat_o[30] O
*I *646:wbs_dat_o[30] O *D CF_SRAM_1024x32_wb_wrapper
*CAP
1 wbs_dat_o[30] 0.000198406
2 *646:wbs_dat_o[30] 0.00416869
3 *631:9 0.00350879
4 *631:7 0.00331038
5 *631:5 0.00416869
6 wbs_dat_o[27] *631:9 0.00349452
7 *646:wbs_adr_i[31] *631:5 0
8 *646:wbs_dat_i[30] *631:5 0
9 *646:wbs_dat_i[31] *631:5 0
10 *551:13 *631:5 0
11 *584:13 *631:5 0
12 *599:15 *631:5 0.00307829
13 *600:11 *631:9 0.022224
14 *628:13 *631:9 0.0193461
15 *629:13 *631:9 0.000188271
*RES
1 *646:wbs_dat_o[30] *631:5 101.911 
2 *631:5 *631:7 4.5 
3 *631:7 *631:9 213.286 
4 *631:9 wbs_dat_o[30] 6.48214 
*END

*D_NET *632 0.065557
*CONN
*P wbs_dat_o[31] O
*I *646:wbs_dat_o[31] O *D CF_SRAM_1024x32_wb_wrapper
*CAP
1 wbs_dat_o[31] 8.21997e-05
2 *646:wbs_dat_o[31] 7.61682e-05
3 *632:13 0.00355708
4 *632:11 0.00347488
5 *632:9 0.00535074
6 *632:7 0.00542691
7 wbs_dat_o[27] *632:13 0.00396328
8 *646:wbs_dat_i[31] *632:7 0
9 *646:wbs_dat_i[31] *632:9 0
10 *600:11 *632:13 0.0231887
11 *600:15 *632:9 0
12 *629:13 *632:13 0.0204371
*RES
1 *646:wbs_dat_o[31] *632:7 1.60714 
2 *632:7 *632:9 101.366 
3 *632:9 *632:11 4.5 
4 *632:11 *632:13 223.554 
5 *632:13 wbs_dat_o[31] 6.07143 
*END

*D_NET *633 0.0244514
*CONN
*P wbs_dat_o[3] O
*I *646:wbs_dat_o[3] O *D CF_SRAM_1024x32_wb_wrapper
*CAP
1 wbs_dat_o[3] 0.00985177
2 *646:wbs_dat_o[3] 0.00985177
3 wbs_dat_o[3] *635:11 0
4 wbs_dat_o[3] *642:23 0.000144958
5 *646:wbs_adr_i[3] wbs_dat_o[3] 0.00187906
6 *646:wbs_dat_i[3] wbs_dat_o[3] 0.00160524
7 *646:wbs_dat_i[6] wbs_dat_o[3] 0.000183249
8 *565:17 wbs_dat_o[3] 8.5811e-05
9 *601:21 wbs_dat_o[3] 0
10 *604:7 wbs_dat_o[3] 0.000849519
*RES
1 *646:wbs_dat_o[3] wbs_dat_o[3] 35.7198 
*END

*D_NET *634 0.0199928
*CONN
*P wbs_dat_o[4] O
*I *646:wbs_dat_o[4] O *D CF_SRAM_1024x32_wb_wrapper
*CAP
1 wbs_dat_o[4] 0.000705563
2 *646:wbs_dat_o[4] 0.00145314
3 *634:9 0.00395969
4 *634:7 0.00470727
5 wbs_dat_o[4] *642:23 9.54798e-06
6 *646:wbs_adr_i[4] *634:9 0
7 *646:wbs_adr_i[5] *634:7 0
8 *646:wbs_adr_i[5] *634:9 0
9 *646:wbs_dat_i[4] *634:7 0
10 *646:wbs_dat_i[4] *634:9 0
11 *568:17 wbs_dat_o[4] 0.000713224
12 *569:13 wbs_dat_o[4] 0.00375448
13 *570:13 wbs_dat_o[4] 0.0034233
14 *571:11 wbs_dat_o[4] 0.000245005
15 *572:9 *634:9 0
16 *572:17 *634:9 0.00102158
17 *602:13 wbs_dat_o[4] 0
*RES
1 *646:wbs_dat_o[4] *634:7 29.5804 
2 *634:7 *634:9 71.3214 
3 *634:9 wbs_dat_o[4] 16.647 
*END

*D_NET *635 0.0172428
*CONN
*P wbs_dat_o[5] O
*I *646:wbs_dat_o[5] O *D CF_SRAM_1024x32_wb_wrapper
*CAP
1 wbs_dat_o[5] 0.00122672
2 *646:wbs_dat_o[5] 0.00177508
3 *635:13 0.00329431
4 *635:11 0.00384267
5 *635:11 *636:15 0.0005867
6 wbs_dat_o[3] *635:11 0
7 *646:wbs_adr_i[2] wbs_dat_o[5] 0.000833908
8 *646:wbs_adr_i[2] *635:13 0.00554021
9 *646:wbs_adr_i[6] *635:11 0
10 *646:wbs_dat_i[5] *635:11 0
11 *646:wbs_dat_i[7] *635:11 0.000116197
12 *605:11 *635:11 2.69575e-05
13 *619:5 wbs_dat_o[5] 0
14 *619:5 *635:13 0
*RES
1 *646:wbs_dat_o[5] *635:11 15.9359 
2 *635:11 *635:13 67.9821 
3 *635:13 wbs_dat_o[5] 31.2411 
*END

*D_NET *636 0.0171061
*CONN
*P wbs_dat_o[6] O
*I *646:wbs_dat_o[6] O *D CF_SRAM_1024x32_wb_wrapper
*CAP
1 wbs_dat_o[6] 0.00141024
2 *646:wbs_dat_o[6] 0.00148594
3 *636:19 0.00241119
4 *636:15 0.00248688
5 wbs_dat_o[6] *646:wbs_sel_i[3] 0.00343374
6 *636:15 *646:wbs_sel_i[3] 0.000807848
7 *636:19 *646:wbs_sel_i[3] 0
8 *646:wbs_adr_i[4] wbs_dat_o[6] 0
9 *646:wbs_adr_i[4] *636:15 0.00116754
10 *646:wbs_adr_i[4] *636:19 0.00252054
11 *646:wbs_adr_i[7] *636:15 0
12 *646:wbs_dat_i[6] *636:15 0
13 *646:wbs_dat_i[7] *636:15 0.000795494
14 *635:11 *636:15 0.0005867
*RES
1 *646:wbs_dat_o[6] *636:15 39.5992 
2 *636:15 *636:19 32.2857 
3 *636:19 wbs_dat_o[6] 43.8304 
*END

*D_NET *637 0.010922
*CONN
*P wbs_dat_o[7] O
*I *646:wbs_dat_o[7] O *D CF_SRAM_1024x32_wb_wrapper
*CAP
1 wbs_dat_o[7] 0.00151364
2 *646:wbs_dat_o[7] 0.00110386
3 *637:13 0.00431347
4 *637:11 0.00390369
5 *646:wbs_adr_i[6] wbs_dat_o[7] 0
6 *646:wbs_adr_i[6] *637:13 0
7 *646:wbs_adr_i[7] *637:11 0
8 *646:wbs_adr_i[7] *637:13 0
9 *646:wbs_adr_i[8] *637:11 8.73592e-05
10 *646:wbs_dat_i[7] *637:11 0
*RES
1 *646:wbs_dat_o[7] *637:11 22.7981 
2 *637:11 *637:13 57.6607 
3 *637:13 wbs_dat_o[7] 31.2411 
*END

*D_NET *638 0.0100815
*CONN
*P wbs_dat_o[8] O
*I *646:wbs_dat_o[8] O *D CF_SRAM_1024x32_wb_wrapper
*CAP
1 wbs_dat_o[8] 0.000103537
2 *646:wbs_dat_o[8] 0.00493722
3 *638:5 0.00504076
4 *646:wbs_adr_i[9] *638:5 0
5 *646:wbs_dat_i[8] *638:5 0
*RES
1 *646:wbs_dat_o[8] *638:5 101.455 
2 *638:5 wbs_dat_o[8] 2.11607 
*END

*D_NET *639 0.0123172
*CONN
*P wbs_dat_o[9] O
*I *646:wbs_dat_o[9] O *D CF_SRAM_1024x32_wb_wrapper
*CAP
1 wbs_dat_o[9] 0.00132371
2 *646:wbs_dat_o[9] 0.00414993
3 *639:5 0.00547364
4 *646:wbs_adr_i[10] *639:5 0
5 *646:wbs_adr_i[12] wbs_dat_o[9] 0
6 *646:wbs_dat_i[11] wbs_dat_o[9] 0.00128752
7 *646:wbs_dat_i[9] *639:5 0
8 *607:13 wbs_dat_o[9] 8.24032e-05
9 *610:9 wbs_dat_o[9] 0
*RES
1 *646:wbs_dat_o[9] *639:5 85.6696 
2 *639:5 wbs_dat_o[9] 25.9461 
*END

*D_NET *640 0.0283623
*CONN
*P wbs_sel_i[0] I
*I *646:wbs_sel_i[0] I *D CF_SRAM_1024x32_wb_wrapper
*CAP
1 wbs_sel_i[0] 0.00180321
2 *646:wbs_sel_i[0] 0.0048054
3 *640:19 0.00543703
4 *640:15 0.00243484
5 *640:15 *642:23 0.000241088
6 *640:19 *642:23 0.000748427
7 *640:19 *645:21 0.00162186
8 wbs_dat_o[0] *640:15 0.00497723
9 *646:wbs_adr_i[1] *646:wbs_sel_i[0] 0
10 *646:wbs_dat_i[1] *646:wbs_sel_i[0] 0
11 *565:17 *640:15 0.00246942
12 *568:17 *640:15 7.45992e-05
13 *587:33 *640:19 0.000355801
14 *598:23 *640:19 0.000101825
15 *601:21 *646:wbs_sel_i[0] 1.49949e-05
16 *601:21 *640:19 0.000518255
17 *608:5 *646:wbs_sel_i[0] 0
18 *608:13 *640:19 0.000177339
19 *619:15 *640:19 0.00253783
20 *630:19 *640:19 4.31369e-05
*RES
1 wbs_sel_i[0] *640:15 25.3517 
2 *640:15 *640:19 40.3571 
3 *640:19 *646:wbs_sel_i[0] 98.2679 
*END

*D_NET *641 0.022343
*CONN
*P wbs_sel_i[1] I
*I *646:wbs_sel_i[1] I *D CF_SRAM_1024x32_wb_wrapper
*CAP
1 wbs_sel_i[1] 0.00160188
2 *646:wbs_sel_i[1] 0.00306688
3 *641:11 0.00653208
4 *641:9 0.00506707
5 *646:wbs_sel_i[1] *646:wbs_stb_i 0.00607511
6 wbs_dat_o[1] *641:9 0
7 *646:wbs_adr_i[2] *646:wbs_sel_i[1] 0
8 *619:5 *646:wbs_sel_i[1] 0
*RES
1 wbs_sel_i[1] *641:9 31.8482 
2 *641:9 *641:11 71.0179 
3 *641:11 *646:wbs_sel_i[1] 20.7555 
*END

*D_NET *642 0.0228225
*CONN
*P wbs_sel_i[2] I
*I *646:wbs_sel_i[2] I *D CF_SRAM_1024x32_wb_wrapper
*CAP
1 wbs_sel_i[2] 0.00173026
2 *646:wbs_sel_i[2] 0.00477451
3 *642:25 0.00477451
4 *642:23 0.00173026
5 *642:23 *643:11 0.000273413
6 wbs_dat_o[0] *642:23 0.000493839
7 wbs_dat_o[1] *642:23 0.0022359
8 wbs_dat_o[2] *642:23 0
9 wbs_dat_o[3] *642:23 0.000144958
10 wbs_dat_o[4] *642:23 9.54798e-06
11 *646:wbs_adr_i[3] *646:wbs_sel_i[2] 0
12 *646:wbs_dat_i[2] *646:wbs_sel_i[2] 0
13 *565:17 *642:23 0.000701427
14 *568:17 *642:23 0.00161479
15 *569:13 *642:23 0.000930086
16 *598:23 *642:23 0.00161484
17 *601:21 *642:23 8.37135e-05
18 *602:13 *642:23 0
19 *619:15 *642:23 0.000358973
20 *630:5 *646:wbs_sel_i[2] 0
21 *630:19 *642:23 0.00036194
22 *640:15 *642:23 0.000241088
23 *640:19 *642:23 0.000748427
*RES
1 wbs_sel_i[2] *642:23 46.1422 
2 *642:23 *642:25 4.5 
3 *642:25 *646:wbs_sel_i[2] 97.9643 
*END

*D_NET *643 0.0197684
*CONN
*P wbs_sel_i[3] I
*I *646:wbs_sel_i[3] I *D CF_SRAM_1024x32_wb_wrapper
*CAP
1 wbs_sel_i[3] 0.00167743
2 *646:wbs_sel_i[3] 0.00389642
3 *643:11 0.00557385
4 wbs_dat_o[6] *646:wbs_sel_i[3] 0.00343374
5 *646:wbs_adr_i[4] *646:wbs_sel_i[3] 0
6 *646:wbs_dat_i[3] *646:wbs_sel_i[3] 0
7 *646:wbs_dat_i[6] *646:wbs_sel_i[3] 0
8 *565:17 *643:11 0.000731216
9 *569:13 *643:11 0.00153395
10 *571:11 *643:11 0.000918819
11 *603:19 *643:11 0.0009217
12 *604:7 *646:wbs_sel_i[3] 0
13 *636:15 *646:wbs_sel_i[3] 0.000807848
14 *636:19 *646:wbs_sel_i[3] 0
15 *642:23 *643:11 0.000273413
*RES
1 wbs_sel_i[3] *643:11 16.4276 
2 *643:11 *646:wbs_sel_i[3] 102.062 
*END

*D_NET *644 0.0254298
*CONN
*P wbs_stb_i I
*I *646:wbs_stb_i I *D CF_SRAM_1024x32_wb_wrapper
*CAP
1 wbs_stb_i 0.00156615
2 *646:wbs_stb_i 0.0046334
3 *644:11 0.00811118
4 *644:9 0.00504393
5 *646:wbs_stb_i *646:wbs_we_i 0
6 *646:wbs_cyc_i *646:wbs_stb_i 0
7 *646:wbs_sel_i[1] *646:wbs_stb_i 0.00607511
*RES
1 wbs_stb_i *644:9 31.8482 
2 *644:9 *644:11 71.625 
3 *644:11 *646:wbs_stb_i 25.265 
*END

*D_NET *645 0.0314031
*CONN
*P wbs_we_i I
*I *646:wbs_we_i I *D CF_SRAM_1024x32_wb_wrapper
*CAP
1 wbs_we_i 0.00181592
2 *646:wbs_we_i 0.00486365
3 *645:21 0.00556145
4 *645:17 0.00251372
5 wbs_dat_o[0] *645:17 0.000891431
6 wbs_dat_o[1] *645:17 0.00280219
7 wbs_dat_o[2] *645:17 0
8 *646:wbs_adr_i[0] *646:wbs_we_i 0
9 *646:wbs_cyc_i *646:wbs_we_i 0
10 *646:wbs_dat_i[0] *646:wbs_we_i 0
11 *646:wbs_stb_i *646:wbs_we_i 0
12 *543:9 *645:17 0
13 *575:17 *645:17 0.00597357
14 *575:21 *645:21 0.00329105
15 *576:17 *645:17 3.9768e-05
16 *576:21 *645:21 0.000113689
17 *598:23 *645:17 0.00096512
18 *601:21 *645:21 0.000428596
19 *602:13 *646:wbs_we_i 8.79856e-06
20 *608:13 *645:21 0
21 *630:19 *645:21 0.000512301
22 *640:19 *645:21 0.00162186
*RES
1 wbs_we_i *645:17 27.1776 
2 *645:17 *645:21 39.5357 
3 *645:21 *646:wbs_we_i 97.6607 
*END
