*SPEF "ieee 1481-1999"
*DESIGN "user_project_wrapper"
*DATE "05:35:47 Saturday September 05, 2026"
*VENDOR "The OpenROAD Project"
*PROGRAM "OpenROAD"
*VERSION "edf00dff99f6c40d67a30c0e22a8191c5d2ed9d6"
*DESIGN_FLOW "NAME_SCOPE LOCAL" "PIN_CAP NONE"
*DIVIDER /
*DELIMITER :
*BUS_DELIMITER []
*T_UNIT 1 NS
*C_UNIT 1 PF
*R_UNIT 1 OHM
*L_UNIT 1 HENRY

*NAME_MAP
*1 analog_io[0]
*2 analog_io[10]
*3 analog_io[11]
*4 analog_io[12]
*5 analog_io[13]
*6 analog_io[14]
*7 analog_io[15]
*8 analog_io[16]
*9 analog_io[17]
*10 analog_io[18]
*11 analog_io[19]
*12 analog_io[1]
*13 analog_io[20]
*14 analog_io[21]
*15 analog_io[22]
*16 analog_io[23]
*17 analog_io[24]
*18 analog_io[25]
*19 analog_io[26]
*20 analog_io[27]
*21 analog_io[28]
*22 analog_io[2]
*23 analog_io[3]
*24 analog_io[4]
*25 analog_io[5]
*26 analog_io[6]
*27 analog_io[7]
*28 analog_io[8]
*29 analog_io[9]
*30 io_in[0]
*31 io_in[10]
*32 io_in[11]
*33 io_in[12]
*34 io_in[13]
*35 io_in[14]
*36 io_in[15]
*37 io_in[16]
*38 io_in[17]
*39 io_in[18]
*40 io_in[19]
*41 io_in[1]
*42 io_in[20]
*43 io_in[21]
*44 io_in[22]
*45 io_in[23]
*46 io_in[24]
*47 io_in[25]
*48 io_in[26]
*49 io_in[27]
*50 io_in[28]
*51 io_in[29]
*52 io_in[2]
*53 io_in[30]
*54 io_in[31]
*55 io_in[32]
*56 io_in[33]
*57 io_in[34]
*58 io_in[35]
*59 io_in[36]
*60 io_in[37]
*61 io_in[3]
*62 io_in[4]
*63 io_in[5]
*64 io_in[6]
*65 io_in[7]
*66 io_in[8]
*67 io_in[9]
*68 io_oeb[0]
*69 io_oeb[10]
*70 io_oeb[11]
*71 io_oeb[12]
*72 io_oeb[13]
*73 io_oeb[14]
*74 io_oeb[15]
*75 io_oeb[16]
*76 io_oeb[17]
*77 io_oeb[18]
*78 io_oeb[19]
*79 io_oeb[1]
*80 io_oeb[20]
*81 io_oeb[21]
*82 io_oeb[22]
*83 io_oeb[23]
*84 io_oeb[24]
*85 io_oeb[25]
*86 io_oeb[26]
*87 io_oeb[27]
*88 io_oeb[28]
*89 io_oeb[29]
*90 io_oeb[2]
*91 io_oeb[30]
*92 io_oeb[31]
*93 io_oeb[32]
*94 io_oeb[33]
*95 io_oeb[34]
*96 io_oeb[35]
*97 io_oeb[36]
*98 io_oeb[37]
*99 io_oeb[3]
*100 io_oeb[4]
*101 io_oeb[5]
*102 io_oeb[6]
*103 io_oeb[7]
*104 io_oeb[8]
*105 io_oeb[9]
*106 io_out[0]
*107 io_out[10]
*108 io_out[11]
*109 io_out[12]
*110 io_out[13]
*111 io_out[14]
*112 io_out[15]
*113 io_out[16]
*114 io_out[17]
*115 io_out[18]
*116 io_out[19]
*117 io_out[1]
*118 io_out[20]
*119 io_out[21]
*120 io_out[22]
*121 io_out[23]
*122 io_out[24]
*123 io_out[25]
*124 io_out[26]
*125 io_out[27]
*126 io_out[28]
*127 io_out[29]
*128 io_out[2]
*129 io_out[30]
*130 io_out[31]
*131 io_out[32]
*132 io_out[33]
*133 io_out[34]
*134 io_out[35]
*135 io_out[36]
*136 io_out[37]
*137 io_out[3]
*138 io_out[4]
*139 io_out[5]
*140 io_out[6]
*141 io_out[7]
*142 io_out[8]
*143 io_out[9]
*144 la_data_in[0]
*145 la_data_in[100]
*146 la_data_in[101]
*147 la_data_in[102]
*148 la_data_in[103]
*149 la_data_in[104]
*150 la_data_in[105]
*151 la_data_in[106]
*152 la_data_in[107]
*153 la_data_in[108]
*154 la_data_in[109]
*155 la_data_in[10]
*156 la_data_in[110]
*157 la_data_in[111]
*158 la_data_in[112]
*159 la_data_in[113]
*160 la_data_in[114]
*161 la_data_in[115]
*162 la_data_in[116]
*163 la_data_in[117]
*164 la_data_in[118]
*165 la_data_in[119]
*166 la_data_in[11]
*167 la_data_in[120]
*168 la_data_in[121]
*169 la_data_in[122]
*170 la_data_in[123]
*171 la_data_in[124]
*172 la_data_in[125]
*173 la_data_in[126]
*174 la_data_in[127]
*175 la_data_in[12]
*176 la_data_in[13]
*177 la_data_in[14]
*178 la_data_in[15]
*179 la_data_in[16]
*180 la_data_in[17]
*181 la_data_in[18]
*182 la_data_in[19]
*183 la_data_in[1]
*184 la_data_in[20]
*185 la_data_in[21]
*186 la_data_in[22]
*187 la_data_in[23]
*188 la_data_in[24]
*189 la_data_in[25]
*190 la_data_in[26]
*191 la_data_in[27]
*192 la_data_in[28]
*193 la_data_in[29]
*194 la_data_in[2]
*195 la_data_in[30]
*196 la_data_in[31]
*197 la_data_in[32]
*198 la_data_in[33]
*199 la_data_in[34]
*200 la_data_in[35]
*201 la_data_in[36]
*202 la_data_in[37]
*203 la_data_in[38]
*204 la_data_in[39]
*205 la_data_in[3]
*206 la_data_in[40]
*207 la_data_in[41]
*208 la_data_in[42]
*209 la_data_in[43]
*210 la_data_in[44]
*211 la_data_in[45]
*212 la_data_in[46]
*213 la_data_in[47]
*214 la_data_in[48]
*215 la_data_in[49]
*216 la_data_in[4]
*217 la_data_in[50]
*218 la_data_in[51]
*219 la_data_in[52]
*220 la_data_in[53]
*221 la_data_in[54]
*222 la_data_in[55]
*223 la_data_in[56]
*224 la_data_in[57]
*225 la_data_in[58]
*226 la_data_in[59]
*227 la_data_in[5]
*228 la_data_in[60]
*229 la_data_in[61]
*230 la_data_in[62]
*231 la_data_in[63]
*232 la_data_in[64]
*233 la_data_in[65]
*234 la_data_in[66]
*235 la_data_in[67]
*236 la_data_in[68]
*237 la_data_in[69]
*238 la_data_in[6]
*239 la_data_in[70]
*240 la_data_in[71]
*241 la_data_in[72]
*242 la_data_in[73]
*243 la_data_in[74]
*244 la_data_in[75]
*245 la_data_in[76]
*246 la_data_in[77]
*247 la_data_in[78]
*248 la_data_in[79]
*249 la_data_in[7]
*250 la_data_in[80]
*251 la_data_in[81]
*252 la_data_in[82]
*253 la_data_in[83]
*254 la_data_in[84]
*255 la_data_in[85]
*256 la_data_in[86]
*257 la_data_in[87]
*258 la_data_in[88]
*259 la_data_in[89]
*260 la_data_in[8]
*261 la_data_in[90]
*262 la_data_in[91]
*263 la_data_in[92]
*264 la_data_in[93]
*265 la_data_in[94]
*266 la_data_in[95]
*267 la_data_in[96]
*268 la_data_in[97]
*269 la_data_in[98]
*270 la_data_in[99]
*271 la_data_in[9]
*272 la_data_out[0]
*273 la_data_out[100]
*274 la_data_out[101]
*275 la_data_out[102]
*276 la_data_out[103]
*277 la_data_out[104]
*278 la_data_out[105]
*279 la_data_out[106]
*280 la_data_out[107]
*281 la_data_out[108]
*282 la_data_out[109]
*283 la_data_out[10]
*284 la_data_out[110]
*285 la_data_out[111]
*286 la_data_out[112]
*287 la_data_out[113]
*288 la_data_out[114]
*289 la_data_out[115]
*290 la_data_out[116]
*291 la_data_out[117]
*292 la_data_out[118]
*293 la_data_out[119]
*294 la_data_out[11]
*295 la_data_out[120]
*296 la_data_out[121]
*297 la_data_out[122]
*298 la_data_out[123]
*299 la_data_out[124]
*300 la_data_out[125]
*301 la_data_out[126]
*302 la_data_out[127]
*303 la_data_out[12]
*304 la_data_out[13]
*305 la_data_out[14]
*306 la_data_out[15]
*307 la_data_out[16]
*308 la_data_out[17]
*309 la_data_out[18]
*310 la_data_out[19]
*311 la_data_out[1]
*312 la_data_out[20]
*313 la_data_out[21]
*314 la_data_out[22]
*315 la_data_out[23]
*316 la_data_out[24]
*317 la_data_out[25]
*318 la_data_out[26]
*319 la_data_out[27]
*320 la_data_out[28]
*321 la_data_out[29]
*322 la_data_out[2]
*323 la_data_out[30]
*324 la_data_out[31]
*325 la_data_out[32]
*326 la_data_out[33]
*327 la_data_out[34]
*328 la_data_out[35]
*329 la_data_out[36]
*330 la_data_out[37]
*331 la_data_out[38]
*332 la_data_out[39]
*333 la_data_out[3]
*334 la_data_out[40]
*335 la_data_out[41]
*336 la_data_out[42]
*337 la_data_out[43]
*338 la_data_out[44]
*339 la_data_out[45]
*340 la_data_out[46]
*341 la_data_out[47]
*342 la_data_out[48]
*343 la_data_out[49]
*344 la_data_out[4]
*345 la_data_out[50]
*346 la_data_out[51]
*347 la_data_out[52]
*348 la_data_out[53]
*349 la_data_out[54]
*350 la_data_out[55]
*351 la_data_out[56]
*352 la_data_out[57]
*353 la_data_out[58]
*354 la_data_out[59]
*355 la_data_out[5]
*356 la_data_out[60]
*357 la_data_out[61]
*358 la_data_out[62]
*359 la_data_out[63]
*360 la_data_out[64]
*361 la_data_out[65]
*362 la_data_out[66]
*363 la_data_out[67]
*364 la_data_out[68]
*365 la_data_out[69]
*366 la_data_out[6]
*367 la_data_out[70]
*368 la_data_out[71]
*369 la_data_out[72]
*370 la_data_out[73]
*371 la_data_out[74]
*372 la_data_out[75]
*373 la_data_out[76]
*374 la_data_out[77]
*375 la_data_out[78]
*376 la_data_out[79]
*377 la_data_out[7]
*378 la_data_out[80]
*379 la_data_out[81]
*380 la_data_out[82]
*381 la_data_out[83]
*382 la_data_out[84]
*383 la_data_out[85]
*384 la_data_out[86]
*385 la_data_out[87]
*386 la_data_out[88]
*387 la_data_out[89]
*388 la_data_out[8]
*389 la_data_out[90]
*390 la_data_out[91]
*391 la_data_out[92]
*392 la_data_out[93]
*393 la_data_out[94]
*394 la_data_out[95]
*395 la_data_out[96]
*396 la_data_out[97]
*397 la_data_out[98]
*398 la_data_out[99]
*399 la_data_out[9]
*400 la_oenb[0]
*401 la_oenb[100]
*402 la_oenb[101]
*403 la_oenb[102]
*404 la_oenb[103]
*405 la_oenb[104]
*406 la_oenb[105]
*407 la_oenb[106]
*408 la_oenb[107]
*409 la_oenb[108]
*410 la_oenb[109]
*411 la_oenb[10]
*412 la_oenb[110]
*413 la_oenb[111]
*414 la_oenb[112]
*415 la_oenb[113]
*416 la_oenb[114]
*417 la_oenb[115]
*418 la_oenb[116]
*419 la_oenb[117]
*420 la_oenb[118]
*421 la_oenb[119]
*422 la_oenb[11]
*423 la_oenb[120]
*424 la_oenb[121]
*425 la_oenb[122]
*426 la_oenb[123]
*427 la_oenb[124]
*428 la_oenb[125]
*429 la_oenb[126]
*430 la_oenb[127]
*431 la_oenb[12]
*432 la_oenb[13]
*433 la_oenb[14]
*434 la_oenb[15]
*435 la_oenb[16]
*436 la_oenb[17]
*437 la_oenb[18]
*438 la_oenb[19]
*439 la_oenb[1]
*440 la_oenb[20]
*441 la_oenb[21]
*442 la_oenb[22]
*443 la_oenb[23]
*444 la_oenb[24]
*445 la_oenb[25]
*446 la_oenb[26]
*447 la_oenb[27]
*448 la_oenb[28]
*449 la_oenb[29]
*450 la_oenb[2]
*451 la_oenb[30]
*452 la_oenb[31]
*453 la_oenb[32]
*454 la_oenb[33]
*455 la_oenb[34]
*456 la_oenb[35]
*457 la_oenb[36]
*458 la_oenb[37]
*459 la_oenb[38]
*460 la_oenb[39]
*461 la_oenb[3]
*462 la_oenb[40]
*463 la_oenb[41]
*464 la_oenb[42]
*465 la_oenb[43]
*466 la_oenb[44]
*467 la_oenb[45]
*468 la_oenb[46]
*469 la_oenb[47]
*470 la_oenb[48]
*471 la_oenb[49]
*472 la_oenb[4]
*473 la_oenb[50]
*474 la_oenb[51]
*475 la_oenb[52]
*476 la_oenb[53]
*477 la_oenb[54]
*478 la_oenb[55]
*479 la_oenb[56]
*480 la_oenb[57]
*481 la_oenb[58]
*482 la_oenb[59]
*483 la_oenb[5]
*484 la_oenb[60]
*485 la_oenb[61]
*486 la_oenb[62]
*487 la_oenb[63]
*488 la_oenb[64]
*489 la_oenb[65]
*490 la_oenb[66]
*491 la_oenb[67]
*492 la_oenb[68]
*493 la_oenb[69]
*494 la_oenb[6]
*495 la_oenb[70]
*496 la_oenb[71]
*497 la_oenb[72]
*498 la_oenb[73]
*499 la_oenb[74]
*500 la_oenb[75]
*501 la_oenb[76]
*502 la_oenb[77]
*503 la_oenb[78]
*504 la_oenb[79]
*505 la_oenb[7]
*506 la_oenb[80]
*507 la_oenb[81]
*508 la_oenb[82]
*509 la_oenb[83]
*510 la_oenb[84]
*511 la_oenb[85]
*512 la_oenb[86]
*513 la_oenb[87]
*514 la_oenb[88]
*515 la_oenb[89]
*516 la_oenb[8]
*517 la_oenb[90]
*518 la_oenb[91]
*519 la_oenb[92]
*520 la_oenb[93]
*521 la_oenb[94]
*522 la_oenb[95]
*523 la_oenb[96]
*524 la_oenb[97]
*525 la_oenb[98]
*526 la_oenb[99]
*527 la_oenb[9]
*528 user_clock2
*529 user_irq[0]
*530 user_irq[1]
*531 user_irq[2]
*540 wb_clk_i
*541 wb_rst_i
*542 wbs_ack_o
*543 wbs_adr_i[0]
*544 wbs_adr_i[10]
*545 wbs_adr_i[11]
*546 wbs_adr_i[12]
*547 wbs_adr_i[13]
*548 wbs_adr_i[14]
*549 wbs_adr_i[15]
*550 wbs_adr_i[16]
*551 wbs_adr_i[17]
*552 wbs_adr_i[18]
*553 wbs_adr_i[19]
*554 wbs_adr_i[1]
*555 wbs_adr_i[20]
*556 wbs_adr_i[21]
*557 wbs_adr_i[22]
*558 wbs_adr_i[23]
*559 wbs_adr_i[24]
*560 wbs_adr_i[25]
*561 wbs_adr_i[26]
*562 wbs_adr_i[27]
*563 wbs_adr_i[28]
*564 wbs_adr_i[29]
*565 wbs_adr_i[2]
*566 wbs_adr_i[30]
*567 wbs_adr_i[31]
*568 wbs_adr_i[3]
*569 wbs_adr_i[4]
*570 wbs_adr_i[5]
*571 wbs_adr_i[6]
*572 wbs_adr_i[7]
*573 wbs_adr_i[8]
*574 wbs_adr_i[9]
*575 wbs_cyc_i
*576 wbs_dat_i[0]
*577 wbs_dat_i[10]
*578 wbs_dat_i[11]
*579 wbs_dat_i[12]
*580 wbs_dat_i[13]
*581 wbs_dat_i[14]
*582 wbs_dat_i[15]
*583 wbs_dat_i[16]
*584 wbs_dat_i[17]
*585 wbs_dat_i[18]
*586 wbs_dat_i[19]
*587 wbs_dat_i[1]
*588 wbs_dat_i[20]
*589 wbs_dat_i[21]
*590 wbs_dat_i[22]
*591 wbs_dat_i[23]
*592 wbs_dat_i[24]
*593 wbs_dat_i[25]
*594 wbs_dat_i[26]
*595 wbs_dat_i[27]
*596 wbs_dat_i[28]
*597 wbs_dat_i[29]
*598 wbs_dat_i[2]
*599 wbs_dat_i[30]
*600 wbs_dat_i[31]
*601 wbs_dat_i[3]
*602 wbs_dat_i[4]
*603 wbs_dat_i[5]
*604 wbs_dat_i[6]
*605 wbs_dat_i[7]
*606 wbs_dat_i[8]
*607 wbs_dat_i[9]
*608 wbs_dat_o[0]
*609 wbs_dat_o[10]
*610 wbs_dat_o[11]
*611 wbs_dat_o[12]
*612 wbs_dat_o[13]
*613 wbs_dat_o[14]
*614 wbs_dat_o[15]
*615 wbs_dat_o[16]
*616 wbs_dat_o[17]
*617 wbs_dat_o[18]
*618 wbs_dat_o[19]
*619 wbs_dat_o[1]
*620 wbs_dat_o[20]
*621 wbs_dat_o[21]
*622 wbs_dat_o[22]
*623 wbs_dat_o[23]
*624 wbs_dat_o[24]
*625 wbs_dat_o[25]
*626 wbs_dat_o[26]
*627 wbs_dat_o[27]
*628 wbs_dat_o[28]
*629 wbs_dat_o[29]
*630 wbs_dat_o[2]
*631 wbs_dat_o[30]
*632 wbs_dat_o[31]
*633 wbs_dat_o[3]
*634 wbs_dat_o[4]
*635 wbs_dat_o[5]
*636 wbs_dat_o[6]
*637 wbs_dat_o[7]
*638 wbs_dat_o[8]
*639 wbs_dat_o[9]
*640 wbs_sel_i[0]
*641 wbs_sel_i[1]
*642 wbs_sel_i[2]
*643 wbs_sel_i[3]
*644 wbs_stb_i
*645 wbs_we_i
*646 mprj

*PORTS
analog_io[0] I
analog_io[10] I
analog_io[11] I
analog_io[12] I
analog_io[13] I
analog_io[14] I
analog_io[15] I
analog_io[16] I
analog_io[17] I
analog_io[18] I
analog_io[19] I
analog_io[1] I
analog_io[20] I
analog_io[21] I
analog_io[22] I
analog_io[23] I
analog_io[24] I
analog_io[25] I
analog_io[26] I
analog_io[27] I
analog_io[28] I
analog_io[2] I
analog_io[3] I
analog_io[4] I
analog_io[5] I
analog_io[6] I
analog_io[7] I
analog_io[8] I
analog_io[9] I
io_in[0] I
io_in[10] I
io_in[11] I
io_in[12] I
io_in[13] I
io_in[14] I
io_in[15] I
io_in[16] I
io_in[17] I
io_in[18] I
io_in[19] I
io_in[1] I
io_in[20] I
io_in[21] I
io_in[22] I
io_in[23] I
io_in[24] I
io_in[25] I
io_in[26] I
io_in[27] I
io_in[28] I
io_in[29] I
io_in[2] I
io_in[30] I
io_in[31] I
io_in[32] I
io_in[33] I
io_in[34] I
io_in[35] I
io_in[36] I
io_in[37] I
io_in[3] I
io_in[4] I
io_in[5] I
io_in[6] I
io_in[7] I
io_in[8] I
io_in[9] I
io_oeb[0] O
io_oeb[10] O
io_oeb[11] O
io_oeb[12] O
io_oeb[13] O
io_oeb[14] O
io_oeb[15] O
io_oeb[16] O
io_oeb[17] O
io_oeb[18] O
io_oeb[19] O
io_oeb[1] O
io_oeb[20] O
io_oeb[21] O
io_oeb[22] O
io_oeb[23] O
io_oeb[24] O
io_oeb[25] O
io_oeb[26] O
io_oeb[27] O
io_oeb[28] O
io_oeb[29] O
io_oeb[2] O
io_oeb[30] O
io_oeb[31] O
io_oeb[32] O
io_oeb[33] O
io_oeb[34] O
io_oeb[35] O
io_oeb[36] O
io_oeb[37] O
io_oeb[3] O
io_oeb[4] O
io_oeb[5] O
io_oeb[6] O
io_oeb[7] O
io_oeb[8] O
io_oeb[9] O
io_out[0] O
io_out[10] O
io_out[11] O
io_out[12] O
io_out[13] O
io_out[14] O
io_out[15] O
io_out[16] O
io_out[17] O
io_out[18] O
io_out[19] O
io_out[1] O
io_out[20] O
io_out[21] O
io_out[22] O
io_out[23] O
io_out[24] O
io_out[25] O
io_out[26] O
io_out[27] O
io_out[28] O
io_out[29] O
io_out[2] O
io_out[30] O
io_out[31] O
io_out[32] O
io_out[33] O
io_out[34] O
io_out[35] O
io_out[36] O
io_out[37] O
io_out[3] O
io_out[4] O
io_out[5] O
io_out[6] O
io_out[7] O
io_out[8] O
io_out[9] O
la_data_in[0] I
la_data_in[100] I
la_data_in[101] I
la_data_in[102] I
la_data_in[103] I
la_data_in[104] I
la_data_in[105] I
la_data_in[106] I
la_data_in[107] I
la_data_in[108] I
la_data_in[109] I
la_data_in[10] I
la_data_in[110] I
la_data_in[111] I
la_data_in[112] I
la_data_in[113] I
la_data_in[114] I
la_data_in[115] I
la_data_in[116] I
la_data_in[117] I
la_data_in[118] I
la_data_in[119] I
la_data_in[11] I
la_data_in[120] I
la_data_in[121] I
la_data_in[122] I
la_data_in[123] I
la_data_in[124] I
la_data_in[125] I
la_data_in[126] I
la_data_in[127] I
la_data_in[12] I
la_data_in[13] I
la_data_in[14] I
la_data_in[15] I
la_data_in[16] I
la_data_in[17] I
la_data_in[18] I
la_data_in[19] I
la_data_in[1] I
la_data_in[20] I
la_data_in[21] I
la_data_in[22] I
la_data_in[23] I
la_data_in[24] I
la_data_in[25] I
la_data_in[26] I
la_data_in[27] I
la_data_in[28] I
la_data_in[29] I
la_data_in[2] I
la_data_in[30] I
la_data_in[31] I
la_data_in[32] I
la_data_in[33] I
la_data_in[34] I
la_data_in[35] I
la_data_in[36] I
la_data_in[37] I
la_data_in[38] I
la_data_in[39] I
la_data_in[3] I
la_data_in[40] I
la_data_in[41] I
la_data_in[42] I
la_data_in[43] I
la_data_in[44] I
la_data_in[45] I
la_data_in[46] I
la_data_in[47] I
la_data_in[48] I
la_data_in[49] I
la_data_in[4] I
la_data_in[50] I
la_data_in[51] I
la_data_in[52] I
la_data_in[53] I
la_data_in[54] I
la_data_in[55] I
la_data_in[56] I
la_data_in[57] I
la_data_in[58] I
la_data_in[59] I
la_data_in[5] I
la_data_in[60] I
la_data_in[61] I
la_data_in[62] I
la_data_in[63] I
la_data_in[64] I
la_data_in[65] I
la_data_in[66] I
la_data_in[67] I
la_data_in[68] I
la_data_in[69] I
la_data_in[6] I
la_data_in[70] I
la_data_in[71] I
la_data_in[72] I
la_data_in[73] I
la_data_in[74] I
la_data_in[75] I
la_data_in[76] I
la_data_in[77] I
la_data_in[78] I
la_data_in[79] I
la_data_in[7] I
la_data_in[80] I
la_data_in[81] I
la_data_in[82] I
la_data_in[83] I
la_data_in[84] I
la_data_in[85] I
la_data_in[86] I
la_data_in[87] I
la_data_in[88] I
la_data_in[89] I
la_data_in[8] I
la_data_in[90] I
la_data_in[91] I
la_data_in[92] I
la_data_in[93] I
la_data_in[94] I
la_data_in[95] I
la_data_in[96] I
la_data_in[97] I
la_data_in[98] I
la_data_in[99] I
la_data_in[9] I
la_data_out[0] O
la_data_out[100] O
la_data_out[101] O
la_data_out[102] O
la_data_out[103] O
la_data_out[104] O
la_data_out[105] O
la_data_out[106] O
la_data_out[107] O
la_data_out[108] O
la_data_out[109] O
la_data_out[10] O
la_data_out[110] O
la_data_out[111] O
la_data_out[112] O
la_data_out[113] O
la_data_out[114] O
la_data_out[115] O
la_data_out[116] O
la_data_out[117] O
la_data_out[118] O
la_data_out[119] O
la_data_out[11] O
la_data_out[120] O
la_data_out[121] O
la_data_out[122] O
la_data_out[123] O
la_data_out[124] O
la_data_out[125] O
la_data_out[126] O
la_data_out[127] O
la_data_out[12] O
la_data_out[13] O
la_data_out[14] O
la_data_out[15] O
la_data_out[16] O
la_data_out[17] O
la_data_out[18] O
la_data_out[19] O
la_data_out[1] O
la_data_out[20] O
la_data_out[21] O
la_data_out[22] O
la_data_out[23] O
la_data_out[24] O
la_data_out[25] O
la_data_out[26] O
la_data_out[27] O
la_data_out[28] O
la_data_out[29] O
la_data_out[2] O
la_data_out[30] O
la_data_out[31] O
la_data_out[32] O
la_data_out[33] O
la_data_out[34] O
la_data_out[35] O
la_data_out[36] O
la_data_out[37] O
la_data_out[38] O
la_data_out[39] O
la_data_out[3] O
la_data_out[40] O
la_data_out[41] O
la_data_out[42] O
la_data_out[43] O
la_data_out[44] O
la_data_out[45] O
la_data_out[46] O
la_data_out[47] O
la_data_out[48] O
la_data_out[49] O
la_data_out[4] O
la_data_out[50] O
la_data_out[51] O
la_data_out[52] O
la_data_out[53] O
la_data_out[54] O
la_data_out[55] O
la_data_out[56] O
la_data_out[57] O
la_data_out[58] O
la_data_out[59] O
la_data_out[5] O
la_data_out[60] O
la_data_out[61] O
la_data_out[62] O
la_data_out[63] O
la_data_out[64] O
la_data_out[65] O
la_data_out[66] O
la_data_out[67] O
la_data_out[68] O
la_data_out[69] O
la_data_out[6] O
la_data_out[70] O
la_data_out[71] O
la_data_out[72] O
la_data_out[73] O
la_data_out[74] O
la_data_out[75] O
la_data_out[76] O
la_data_out[77] O
la_data_out[78] O
la_data_out[79] O
la_data_out[7] O
la_data_out[80] O
la_data_out[81] O
la_data_out[82] O
la_data_out[83] O
la_data_out[84] O
la_data_out[85] O
la_data_out[86] O
la_data_out[87] O
la_data_out[88] O
la_data_out[89] O
la_data_out[8] O
la_data_out[90] O
la_data_out[91] O
la_data_out[92] O
la_data_out[93] O
la_data_out[94] O
la_data_out[95] O
la_data_out[96] O
la_data_out[97] O
la_data_out[98] O
la_data_out[99] O
la_data_out[9] O
la_oenb[0] I
la_oenb[100] I
la_oenb[101] I
la_oenb[102] I
la_oenb[103] I
la_oenb[104] I
la_oenb[105] I
la_oenb[106] I
la_oenb[107] I
la_oenb[108] I
la_oenb[109] I
la_oenb[10] I
la_oenb[110] I
la_oenb[111] I
la_oenb[112] I
la_oenb[113] I
la_oenb[114] I
la_oenb[115] I
la_oenb[116] I
la_oenb[117] I
la_oenb[118] I
la_oenb[119] I
la_oenb[11] I
la_oenb[120] I
la_oenb[121] I
la_oenb[122] I
la_oenb[123] I
la_oenb[124] I
la_oenb[125] I
la_oenb[126] I
la_oenb[127] I
la_oenb[12] I
la_oenb[13] I
la_oenb[14] I
la_oenb[15] I
la_oenb[16] I
la_oenb[17] I
la_oenb[18] I
la_oenb[19] I
la_oenb[1] I
la_oenb[20] I
la_oenb[21] I
la_oenb[22] I
la_oenb[23] I
la_oenb[24] I
la_oenb[25] I
la_oenb[26] I
la_oenb[27] I
la_oenb[28] I
la_oenb[29] I
la_oenb[2] I
la_oenb[30] I
la_oenb[31] I
la_oenb[32] I
la_oenb[33] I
la_oenb[34] I
la_oenb[35] I
la_oenb[36] I
la_oenb[37] I
la_oenb[38] I
la_oenb[39] I
la_oenb[3] I
la_oenb[40] I
la_oenb[41] I
la_oenb[42] I
la_oenb[43] I
la_oenb[44] I
la_oenb[45] I
la_oenb[46] I
la_oenb[47] I
la_oenb[48] I
la_oenb[49] I
la_oenb[4] I
la_oenb[50] I
la_oenb[51] I
la_oenb[52] I
la_oenb[53] I
la_oenb[54] I
la_oenb[55] I
la_oenb[56] I
la_oenb[57] I
la_oenb[58] I
la_oenb[59] I
la_oenb[5] I
la_oenb[60] I
la_oenb[61] I
la_oenb[62] I
la_oenb[63] I
la_oenb[64] I
la_oenb[65] I
la_oenb[66] I
la_oenb[67] I
la_oenb[68] I
la_oenb[69] I
la_oenb[6] I
la_oenb[70] I
la_oenb[71] I
la_oenb[72] I
la_oenb[73] I
la_oenb[74] I
la_oenb[75] I
la_oenb[76] I
la_oenb[77] I
la_oenb[78] I
la_oenb[79] I
la_oenb[7] I
la_oenb[80] I
la_oenb[81] I
la_oenb[82] I
la_oenb[83] I
la_oenb[84] I
la_oenb[85] I
la_oenb[86] I
la_oenb[87] I
la_oenb[88] I
la_oenb[89] I
la_oenb[8] I
la_oenb[90] I
la_oenb[91] I
la_oenb[92] I
la_oenb[93] I
la_oenb[94] I
la_oenb[95] I
la_oenb[96] I
la_oenb[97] I
la_oenb[98] I
la_oenb[99] I
la_oenb[9] I
user_clock2 I
user_irq[0] O
user_irq[1] O
user_irq[2] O
wb_clk_i I
wb_rst_i I
wbs_ack_o O
wbs_adr_i[0] I
wbs_adr_i[10] I
wbs_adr_i[11] I
wbs_adr_i[12] I
wbs_adr_i[13] I
wbs_adr_i[14] I
wbs_adr_i[15] I
wbs_adr_i[16] I
wbs_adr_i[17] I
wbs_adr_i[18] I
wbs_adr_i[19] I
wbs_adr_i[1] I
wbs_adr_i[20] I
wbs_adr_i[21] I
wbs_adr_i[22] I
wbs_adr_i[23] I
wbs_adr_i[24] I
wbs_adr_i[25] I
wbs_adr_i[26] I
wbs_adr_i[27] I
wbs_adr_i[28] I
wbs_adr_i[29] I
wbs_adr_i[2] I
wbs_adr_i[30] I
wbs_adr_i[31] I
wbs_adr_i[3] I
wbs_adr_i[4] I
wbs_adr_i[5] I
wbs_adr_i[6] I
wbs_adr_i[7] I
wbs_adr_i[8] I
wbs_adr_i[9] I
wbs_cyc_i I
wbs_dat_i[0] I
wbs_dat_i[10] I
wbs_dat_i[11] I
wbs_dat_i[12] I
wbs_dat_i[13] I
wbs_dat_i[14] I
wbs_dat_i[15] I
wbs_dat_i[16] I
wbs_dat_i[17] I
wbs_dat_i[18] I
wbs_dat_i[19] I
wbs_dat_i[1] I
wbs_dat_i[20] I
wbs_dat_i[21] I
wbs_dat_i[22] I
wbs_dat_i[23] I
wbs_dat_i[24] I
wbs_dat_i[25] I
wbs_dat_i[26] I
wbs_dat_i[27] I
wbs_dat_i[28] I
wbs_dat_i[29] I
wbs_dat_i[2] I
wbs_dat_i[30] I
wbs_dat_i[31] I
wbs_dat_i[3] I
wbs_dat_i[4] I
wbs_dat_i[5] I
wbs_dat_i[6] I
wbs_dat_i[7] I
wbs_dat_i[8] I
wbs_dat_i[9] I
wbs_dat_o[0] O
wbs_dat_o[10] O
wbs_dat_o[11] O
wbs_dat_o[12] O
wbs_dat_o[13] O
wbs_dat_o[14] O
wbs_dat_o[15] O
wbs_dat_o[16] O
wbs_dat_o[17] O
wbs_dat_o[18] O
wbs_dat_o[19] O
wbs_dat_o[1] O
wbs_dat_o[20] O
wbs_dat_o[21] O
wbs_dat_o[22] O
wbs_dat_o[23] O
wbs_dat_o[24] O
wbs_dat_o[25] O
wbs_dat_o[26] O
wbs_dat_o[27] O
wbs_dat_o[28] O
wbs_dat_o[29] O
wbs_dat_o[2] O
wbs_dat_o[30] O
wbs_dat_o[31] O
wbs_dat_o[3] O
wbs_dat_o[4] O
wbs_dat_o[5] O
wbs_dat_o[6] O
wbs_dat_o[7] O
wbs_dat_o[8] O
wbs_dat_o[9] O
wbs_sel_i[0] I
wbs_sel_i[1] I
wbs_sel_i[2] I
wbs_sel_i[3] I
wbs_stb_i I
wbs_we_i I

*D_NET *540 0.0219703
*CONN
*P wb_clk_i I
*I *646:wb_clk_i I *D CF_SRAM_1024x32_wb_wrapper
*CAP
1 wb_clk_i 0.00629198
2 *646:wb_clk_i 0.00437895
3 *540:13 0.0106709
4 *646:wb_clk_i *646:wb_rst_i 0
5 *646:wb_clk_i *542:5 0
6 *540:13 wbs_ack_o 0
7 *540:13 wbs_dat_o[2] 0.000628427
8 *540:13 *575:17 0
9 *540:13 *576:19 0
*RES
1 wb_clk_i *540:13 24.3156 
2 *540:13 *646:wb_clk_i 79.1025 
*END

*D_NET *541 0.0221379
*CONN
*P wb_rst_i I
*I *646:wb_rst_i I *D CF_SRAM_1024x32_wb_wrapper
*CAP
1 wb_rst_i 0.000548317
2 *646:wb_rst_i 0.0060995
3 *541:13 0.0102296
4 *541:11 0.00467845
5 *646:wb_rst_i *646:wbs_adr_i[0] 0
6 *646:wb_rst_i *542:5 0
7 *541:13 wbs_ack_o 0.000582008
8 *541:13 *575:17 0
9 *646:wb_clk_i *646:wb_rst_i 0
*RES
1 wb_rst_i *541:11 3.05777 
2 *541:11 *541:13 78.645 
3 *541:13 *646:wb_rst_i 22.3454 
*END

*D_NET *542 0.0216386
*CONN
*P wbs_ack_o O
*I *646:wbs_ack_o O *D CF_SRAM_1024x32_wb_wrapper
*CAP
1 wbs_ack_o 0.00643869
2 *646:wbs_ack_o 0.00408962
3 *542:5 0.0105283
4 *542:5 *646:wbs_cyc_i 0
5 *646:wb_clk_i *542:5 0
6 *646:wb_rst_i *542:5 0
7 *540:13 wbs_ack_o 0
8 *541:13 wbs_ack_o 0.000582008
*RES
1 *646:wbs_ack_o *542:5 74.0025 
2 *542:5 wbs_ack_o 28.8283 
*END

*D_NET *543 0.0202151
*CONN
*P wbs_adr_i[0] I
*I *646:wbs_adr_i[0] I *D CF_SRAM_1024x32_wb_wrapper
*CAP
1 wbs_adr_i[0] 0.00149112
2 *646:wbs_adr_i[0] 0.00593146
3 *543:13 0.00861644
4 *543:9 0.0041761
5 *646:wbs_adr_i[0] *646:wbs_adr_i[1] 0
6 *646:wbs_adr_i[0] *646:wbs_dat_i[0] 0
7 *646:wbs_adr_i[0] *646:wbs_we_i 0
8 *543:9 *645:21 0
9 *646:wb_rst_i *646:wbs_adr_i[0] 0
*RES
1 wbs_adr_i[0] *543:9 26.7525 
2 *543:9 *543:13 49.445 
3 *543:13 *646:wbs_adr_i[0] 25.7218 
*END

*D_NET *544 0.0115534
*CONN
*P wbs_adr_i[10] I
*I *646:wbs_adr_i[10] I *D CF_SRAM_1024x32_wb_wrapper
*CAP
1 wbs_adr_i[10] 0.000921073
2 *646:wbs_adr_i[10] 0.00446372
3 *544:13 0.00538479
4 *646:wbs_adr_i[10] wbs_dat_o[10] 0
5 *646:wbs_adr_i[10] *646:wbs_dat_i[10] 0
6 *646:wbs_adr_i[10] *646:wbs_dat_i[9] 0
7 *646:wbs_adr_i[10] *607:13 0
8 *646:wbs_adr_i[10] *609:5 0
9 *646:wbs_adr_i[10] *639:5 0
10 *544:13 wbs_dat_o[10] 0.000519889
11 *544:13 *646:wbs_adr_i[12] 8.73206e-05
12 *544:13 *646:wbs_dat_i[12] 0.000176609
*RES
1 wbs_adr_i[10] *544:13 8.5783 
2 *544:13 *646:wbs_adr_i[10] 81.1425 
*END

*D_NET *545 0.0144109
*CONN
*P wbs_adr_i[11] I
*I *646:wbs_adr_i[11] I *D CF_SRAM_1024x32_wb_wrapper
*CAP
1 wbs_adr_i[11] 0.000862273
2 *646:wbs_adr_i[11] 0.00488648
3 *545:11 0.00574875
4 *646:wbs_adr_i[11] wbs_dat_o[10] 0
5 *646:wbs_adr_i[11] *646:wbs_dat_i[11] 0
6 *646:wbs_adr_i[11] *609:5 0
7 *545:11 wbs_dat_o[10] 0
8 *545:11 wbs_dat_o[11] 5.28564e-05
9 *545:11 wbs_dat_o[14] 0.000143103
10 *545:11 *546:13 8.3307e-05
11 *545:11 *578:11 0.00113684
12 *545:11 *579:13 0.00149725
*RES
1 wbs_adr_i[11] *545:11 5.15997 
2 *545:11 *646:wbs_adr_i[11] 85.2225 
*END

*D_NET *546 0.0158843
*CONN
*P wbs_adr_i[12] I
*I *646:wbs_adr_i[12] I *D CF_SRAM_1024x32_wb_wrapper
*CAP
1 wbs_adr_i[12] 0.000861771
2 *646:wbs_adr_i[12] 0.0045769
3 *546:13 0.00543867
4 *646:wbs_adr_i[12] wbs_dat_o[9] 0
5 *646:wbs_adr_i[12] *646:wbs_dat_i[12] 0
6 *646:wbs_adr_i[12] *610:7 0
7 *646:wbs_adr_i[12] *610:9 0
8 *546:13 wbs_dat_o[11] 0.00261895
9 *546:13 wbs_dat_o[15] 5.45185e-05
10 *546:13 wbs_dat_o[16] 0.00046263
11 *546:13 *579:13 0.00170021
12 *544:13 *646:wbs_adr_i[12] 8.73206e-05
13 *545:11 *546:13 8.3307e-05
*RES
1 wbs_adr_i[12] *546:13 8.4801 
2 *546:13 *646:wbs_adr_i[12] 83.6925 
*END

*D_NET *547 0.01676
*CONN
*P wbs_adr_i[13] I
*I *646:wbs_adr_i[13] I *D CF_SRAM_1024x32_wb_wrapper
*CAP
1 wbs_adr_i[13] 0.00123821
2 *646:wbs_adr_i[13] 0.00291784
3 *547:15 0.00447049
4 *547:13 0.00279086
5 *646:wbs_adr_i[13] *646:wbs_adr_i[16] 0
6 *646:wbs_adr_i[13] *646:wbs_dat_i[12] 0
7 *646:wbs_adr_i[13] *646:wbs_dat_i[13] 0
8 *547:13 *646:wbs_adr_i[20] 0.00141012
9 *547:13 *618:5 0
10 *547:13 *620:5 0
11 *547:15 *646:wbs_adr_i[20] 0.00277064
12 *547:15 *646:wbs_dat_i[20] 0.00116181
13 *547:15 *620:5 0
*RES
1 wbs_adr_i[13] *547:13 26.9625 
2 *547:13 *547:15 54.045 
3 *547:15 *646:wbs_adr_i[13] 13.955 
*END

*D_NET *548 0.0176177
*CONN
*P wbs_adr_i[14] I
*I *646:wbs_adr_i[14] I *D CF_SRAM_1024x32_wb_wrapper
*CAP
1 wbs_adr_i[14] 0.00304732
2 *646:wbs_adr_i[14] 0.00413873
3 *548:13 0.00718605
4 *646:wbs_adr_i[14] *646:wbs_dat_i[14] 0
5 *646:wbs_adr_i[14] *612:5 0
6 *646:wbs_adr_i[14] *613:5 0
7 *548:13 *646:wbs_adr_i[22] 0
8 *548:13 *646:wbs_adr_i[23] 0
9 *548:13 *555:13 0.00030581
10 *548:13 *584:13 0.00293974
*RES
1 wbs_adr_i[14] *548:13 21.1954 
2 *548:13 *646:wbs_adr_i[14] 74.0025 
*END

*D_NET *549 0.0169207
*CONN
*P wbs_adr_i[15] I
*I *646:wbs_adr_i[15] I *D CF_SRAM_1024x32_wb_wrapper
*CAP
1 wbs_adr_i[15] 0.00451603
2 *646:wbs_adr_i[15] 0.00373604
3 *549:13 0.00825207
4 *646:wbs_adr_i[15] *646:wbs_dat_i[15] 0
5 *646:wbs_adr_i[15] *613:5 0
6 *646:wbs_adr_i[15] *614:5 0
7 *549:13 *551:13 0
8 *549:13 *592:13 0.000416561
9 *549:13 *624:5 0
10 *549:13 *625:5 0
*RES
1 wbs_adr_i[15] *549:13 28.6555 
2 *549:13 *646:wbs_adr_i[15] 67.8825 
*END

*D_NET *550 0.0192489
*CONN
*P wbs_adr_i[16] I
*I *646:wbs_adr_i[16] I *D CF_SRAM_1024x32_wb_wrapper
*CAP
1 wbs_adr_i[16] 0.000717461
2 *646:wbs_adr_i[16] 0.00508413
3 *550:11 0.00794199
4 *550:9 0.00357532
5 *646:wbs_adr_i[16] *646:wbs_adr_i[18] 0
6 *646:wbs_adr_i[16] *646:wbs_adr_i[21] 0
7 *646:wbs_adr_i[16] *646:wbs_adr_i[27] 0.000535802
8 *646:wbs_adr_i[16] *646:wbs_adr_i[28] 0.000661222
9 *646:wbs_adr_i[16] *646:wbs_dat_i[16] 0
10 *646:wbs_adr_i[16] *614:5 0
11 *646:wbs_adr_i[16] *627:5 0.000484239
12 *550:9 *627:5 0
13 *550:9 *628:11 0
14 *550:11 *646:wbs_adr_i[28] 0.000248697
15 *550:11 *646:wbs_dat_i[28] 0
16 *550:11 *627:5 0
17 *550:11 *628:11 0
18 *646:wbs_adr_i[13] *646:wbs_adr_i[16] 0
*RES
1 wbs_adr_i[16] *550:9 10.8825 
2 *550:9 *550:11 51.855 
3 *550:11 *646:wbs_adr_i[16] 36.362 
*END

*D_NET *551 0.0208143
*CONN
*P wbs_adr_i[17] I
*I *646:wbs_adr_i[17] I *D CF_SRAM_1024x32_wb_wrapper
*CAP
1 wbs_adr_i[17] 0.00553092
2 *646:wbs_adr_i[17] 0.00347515
3 *551:13 0.00900607
4 *646:wbs_adr_i[17] *646:wbs_dat_i[17] 0
5 *646:wbs_adr_i[17] *615:5 0
6 *551:13 *581:13 0
7 *551:13 *590:13 0
8 *551:13 *593:13 0.00280216
9 *551:13 *599:15 0
10 *551:13 *629:9 0
11 *551:13 *631:5 0
12 *549:13 *551:13 0
*RES
1 wbs_adr_i[17] *551:13 36.2073 
2 *551:13 *646:wbs_adr_i[17] 62.7825 
*END

*D_NET *552 0.0248137
*CONN
*P wbs_adr_i[18] I
*I *646:wbs_adr_i[18] I *D CF_SRAM_1024x32_wb_wrapper
*CAP
1 wbs_adr_i[18] 0.00163158
2 *646:wbs_adr_i[18] 0.00494122
3 *552:13 0.00745358
4 *552:9 0.00414394
5 *646:wbs_adr_i[18] *646:wbs_adr_i[27] 0
6 *646:wbs_adr_i[18] *646:wbs_dat_i[18] 0
7 *646:wbs_adr_i[18] *646:wbs_dat_i[21] 0.00664338
8 *646:wbs_adr_i[18] *616:5 0
9 *646:wbs_adr_i[16] *646:wbs_adr_i[18] 0
*RES
1 wbs_adr_i[18] *552:9 26.2425 
2 *552:9 *552:13 44.855 
3 *552:13 *646:wbs_adr_i[18] 30.0205 
*END

*D_NET *553 0.0255667
*CONN
*P wbs_adr_i[19] I
*I *646:wbs_adr_i[19] I *D CF_SRAM_1024x32_wb_wrapper
*CAP
1 wbs_adr_i[19] 0.00345089
2 *646:wbs_adr_i[19] 0.00443853
3 *553:13 0.00788942
4 *646:wbs_adr_i[19] *646:wbs_dat_i[19] 0
5 *646:wbs_adr_i[19] *617:5 0
6 *646:wbs_adr_i[19] *618:5 0
7 *553:13 wbs_dat_o[19] 0.00192894
8 *553:13 wbs_dat_o[20] 0.000154001
9 *553:13 *646:wbs_adr_i[29] 0.000750814
10 *553:13 *555:13 0
11 *553:13 *557:13 0.000185803
12 *553:13 *558:13 0.000253858
13 *553:13 *559:13 0.000689605
14 *553:13 *561:13 0.00546939
15 *553:13 *580:13 0.000355484
*RES
1 wbs_adr_i[19] *553:13 22.4026 
2 *553:13 *646:wbs_adr_i[19] 79.6125 
*END

*D_NET *554 0.0191848
*CONN
*P wbs_adr_i[1] I
*I *646:wbs_adr_i[1] I *D CF_SRAM_1024x32_wb_wrapper
*CAP
1 wbs_adr_i[1] 0.00150723
2 *646:wbs_adr_i[1] 0.00567963
3 *554:13 0.00808516
4 *554:9 0.00391276
5 *646:wbs_adr_i[1] *646:wbs_dat_i[1] 0
6 *646:wbs_adr_i[1] *646:wbs_sel_i[0] 0
7 *646:wbs_adr_i[0] *646:wbs_adr_i[1] 0
*RES
1 wbs_adr_i[1] *554:9 26.7525 
2 *554:9 *554:13 44.345 
3 *554:13 *646:wbs_adr_i[1] 29.0156 
*END

*D_NET *555 0.0299472
*CONN
*P wbs_adr_i[20] I
*I *646:wbs_adr_i[20] I *D CF_SRAM_1024x32_wb_wrapper
*CAP
1 wbs_adr_i[20] 0.00396973
2 *646:wbs_adr_i[20] 0.00298208
3 *555:13 0.00695182
4 *646:wbs_adr_i[20] *646:wbs_dat_i[20] 0
5 *646:wbs_adr_i[20] *618:5 0
6 *555:13 wbs_dat_o[20] 0.0101517
7 *555:13 *584:13 0
8 *555:13 *595:13 0.00140527
9 *547:13 *646:wbs_adr_i[20] 0.00141012
10 *547:15 *646:wbs_adr_i[20] 0.00277064
11 *548:13 *555:13 0.00030581
12 *553:13 *555:13 0
*RES
1 wbs_adr_i[20] *555:13 26.5742 
2 *555:13 *646:wbs_adr_i[20] 76.5525 
*END

*D_NET *556 0.0273736
*CONN
*P wbs_adr_i[21] I
*I *646:wbs_adr_i[21] I *D CF_SRAM_1024x32_wb_wrapper
*CAP
1 wbs_adr_i[21] 0.00163764
2 *646:wbs_adr_i[21] 0.00618985
3 *556:11 0.00925571
4 *556:9 0.0047035
5 *646:wbs_adr_i[21] *646:wbs_adr_i[31] 0.0055869
6 *646:wbs_adr_i[21] *646:wbs_dat_i[21] 0
7 *646:wbs_adr_i[21] *620:5 0
8 *556:9 wbs_dat_o[20] 0
9 *646:wbs_adr_i[16] *646:wbs_adr_i[21] 0
*RES
1 wbs_adr_i[21] *556:9 26.7525 
2 *556:9 *556:11 54.555 
3 *556:11 *646:wbs_adr_i[21] 24.4574 
*END

*D_NET *557 0.037966
*CONN
*P wbs_adr_i[22] I
*I *646:wbs_adr_i[22] I *D CF_SRAM_1024x32_wb_wrapper
*CAP
1 wbs_adr_i[22] 0.00313956
2 *646:wbs_adr_i[22] 0.00443777
3 *557:13 0.00757734
4 *646:wbs_adr_i[22] wbs_dat_o[22] 0.000279836
5 *646:wbs_adr_i[22] *646:wbs_dat_i[22] 0
6 *646:wbs_adr_i[22] *621:5 0
7 *557:13 wbs_dat_o[20] 0.0105903
8 *557:13 *558:13 0.0117553
9 *557:13 *595:13 0
10 *548:13 *646:wbs_adr_i[22] 0
11 *553:13 *557:13 0.000185803
*RES
1 wbs_adr_i[22] *557:13 28.5795 
2 *557:13 *646:wbs_adr_i[22] 77.5725 
*END

*D_NET *558 0.0419195
*CONN
*P wbs_adr_i[23] I
*I *646:wbs_adr_i[23] I *D CF_SRAM_1024x32_wb_wrapper
*CAP
1 wbs_adr_i[23] 0.00317985
2 *646:wbs_adr_i[23] 0.00439515
3 *558:13 0.007575
4 *646:wbs_adr_i[23] *646:wbs_dat_i[22] 0
5 *646:wbs_adr_i[23] *646:wbs_dat_i[23] 0
6 *646:wbs_adr_i[23] *581:13 0
7 *558:13 *646:wbs_adr_i[29] 0.00183051
8 *558:13 *559:13 0.0129298
9 *558:13 *591:9 0
10 *558:13 *595:13 0
11 *548:13 *646:wbs_adr_i[23] 0
12 *553:13 *558:13 0.000253858
13 *557:13 *558:13 0.0117553
*RES
1 wbs_adr_i[23] *558:13 29.6375 
2 *558:13 *646:wbs_adr_i[23] 78.0825 
*END

*D_NET *559 0.0441929
*CONN
*P wbs_adr_i[24] I
*I *646:wbs_adr_i[24] I *D CF_SRAM_1024x32_wb_wrapper
*CAP
1 wbs_adr_i[24] 0.0032013
2 *646:wbs_adr_i[24] 0.00442766
3 *559:13 0.00762896
4 *646:wbs_adr_i[24] *646:wbs_dat_i[24] 0
5 *646:wbs_adr_i[24] *623:7 0
6 *646:wbs_adr_i[24] *623:9 0
7 *646:wbs_adr_i[24] *624:5 0
8 *559:13 *646:wbs_adr_i[29] 0.00228301
9 *559:13 *561:13 0.0130326
10 *559:13 *595:13 0
11 *553:13 *559:13 0.000689605
12 *558:13 *559:13 0.0129298
*RES
1 wbs_adr_i[24] *559:13 30.0113 
2 *559:13 *646:wbs_adr_i[24] 78.5925 
*END

*D_NET *560 0.0276173
*CONN
*P wbs_adr_i[25] I
*I *646:wbs_adr_i[25] I *D CF_SRAM_1024x32_wb_wrapper
*CAP
1 wbs_adr_i[25] 0.00159362
2 *646:wbs_adr_i[25] 0.0100552
3 *560:13 0.012215
4 *560:9 0.00375349
5 *646:wbs_adr_i[25] *646:wbs_dat_i[16] 0
6 *646:wbs_adr_i[25] *646:wbs_dat_i[21] 0
7 *646:wbs_adr_i[25] *646:wbs_dat_i[25] 0
8 *646:wbs_adr_i[25] *563:13 0
9 *646:wbs_adr_i[25] *624:5 0
*RES
1 wbs_adr_i[25] *560:9 26.7525 
2 *560:9 *560:13 39.245 
3 *560:13 *646:wbs_adr_i[25] 45.2445 
*END

*D_NET *561 0.0437848
*CONN
*P wbs_adr_i[26] I
*I *646:wbs_adr_i[26] I *D CF_SRAM_1024x32_wb_wrapper
*CAP
1 wbs_adr_i[26] 0.00598249
2 *646:wbs_adr_i[26] 0.00392501
3 *561:13 0.0099075
4 *646:wbs_adr_i[26] *646:wbs_dat_i[26] 0
5 *646:wbs_adr_i[26] *582:13 0.00233416
6 *646:wbs_adr_i[26] *625:5 0
7 *646:wbs_adr_i[26] *626:5 0
8 *561:13 wbs_dat_o[19] 0
9 *561:13 *646:wbs_adr_i[29] 0.0031337
10 *561:13 *595:13 0
11 *561:13 *599:13 0
12 *553:13 *561:13 0.00546939
13 *559:13 *561:13 0.0130326
*RES
1 wbs_adr_i[26] *561:13 32.5266 
2 *561:13 *646:wbs_adr_i[26] 79.1025 
*END

*D_NET *562 0.0299224
*CONN
*P wbs_adr_i[27] I
*I *646:wbs_adr_i[27] I *D CF_SRAM_1024x32_wb_wrapper
*CAP
1 wbs_adr_i[27] 0.00155785
2 *646:wbs_adr_i[27] 0.0104242
3 *562:13 0.0131355
4 *562:9 0.00426907
5 *646:wbs_adr_i[27] *646:wbs_adr_i[31] 0
6 *646:wbs_adr_i[27] *646:wbs_dat_i[21] 0
7 *646:wbs_adr_i[27] *646:wbs_dat_i[27] 0
8 *646:wbs_adr_i[27] *626:5 0
9 *646:wbs_adr_i[16] *646:wbs_adr_i[27] 0.000535802
10 *646:wbs_adr_i[18] *646:wbs_adr_i[27] 0
*RES
1 wbs_adr_i[27] *562:9 26.7525 
2 *562:9 *562:13 49.445 
3 *562:13 *646:wbs_adr_i[27] 37.783 
*END

*D_NET *563 0.0314093
*CONN
*P wbs_adr_i[28] I
*I *646:wbs_adr_i[28] I *D CF_SRAM_1024x32_wb_wrapper
*CAP
1 wbs_adr_i[28] 0.000101163
2 *646:wbs_adr_i[28] 0.00124012
3 *563:13 0.0116977
4 *563:7 0.0136804
5 *563:5 0.003324
6 *646:wbs_adr_i[28] *646:wbs_dat_i[28] 0
7 *646:wbs_adr_i[28] *627:5 0
8 *563:13 *646:wbs_dat_i[16] 0.000455911
9 *563:13 *566:17 0
10 *646:wbs_adr_i[16] *646:wbs_adr_i[28] 0.000661222
11 *646:wbs_adr_i[25] *563:13 0
12 *550:11 *646:wbs_adr_i[28] 0.000248697
*RES
1 wbs_adr_i[28] *563:5 0.7425 
2 *563:5 *563:7 58.245 
3 *563:7 *563:13 27.7241 
4 *563:13 *646:wbs_adr_i[28] 27.0825 
*END

*D_NET *564 0.0490514
*CONN
*P wbs_adr_i[29] I
*I *646:wbs_adr_i[29] I *D CF_SRAM_1024x32_wb_wrapper
*CAP
1 wbs_adr_i[29] 0.0183095
2 *646:wbs_adr_i[29] 0.0183095
3 *646:wbs_adr_i[29] wbs_dat_o[19] 0.000888225
4 *646:wbs_adr_i[29] wbs_dat_o[22] 0.00254509
5 *646:wbs_adr_i[29] *646:wbs_dat_i[29] 0.000409222
6 *646:wbs_adr_i[29] *599:13 2.25397e-05
7 *646:wbs_adr_i[29] *629:7 0.000360334
8 *646:wbs_adr_i[29] *629:9 0.000208883
9 *553:13 *646:wbs_adr_i[29] 0.000750814
10 *558:13 *646:wbs_adr_i[29] 0.00183051
11 *559:13 *646:wbs_adr_i[29] 0.00228301
12 *561:13 *646:wbs_adr_i[29] 0.0031337
*RES
1 wbs_adr_i[29] *646:wbs_adr_i[29] 21.4613 
*END

*D_NET *565 0.0235451
*CONN
*P wbs_adr_i[2] I
*I *646:wbs_adr_i[2] I *D CF_SRAM_1024x32_wb_wrapper
*CAP
1 wbs_adr_i[2] 0.00237527
2 *646:wbs_adr_i[2] 0.00307697
3 *565:19 0.00545224
4 *646:wbs_adr_i[2] wbs_dat_o[5] 0.00084946
5 *646:wbs_adr_i[2] *646:wbs_dat_i[2] 0
6 *646:wbs_adr_i[2] *646:wbs_sel_i[1] 0
7 *646:wbs_adr_i[2] *603:19 0
8 *646:wbs_adr_i[2] *619:5 0
9 *646:wbs_adr_i[2] *635:13 0.00509016
10 *565:19 wbs_dat_o[0] 0.00110847
11 *565:19 wbs_dat_o[1] 0.000115146
12 *565:19 wbs_dat_o[3] 7.40972e-05
13 *565:19 *568:17 0.000101392
14 *565:19 *569:13 1.97826e-05
15 *565:19 *570:13 0.000191982
16 *565:19 *587:33 0.00168076
17 *565:19 *640:19 0.00210302
18 *565:19 *642:25 0.000683989
19 *565:19 *643:11 0.000622396
*RES
1 wbs_adr_i[2] *565:19 36.086 
2 *565:19 *646:wbs_adr_i[2] 83.31 
*END

*D_NET *566 0.0338236
*CONN
*P wbs_adr_i[30] I
*I *646:wbs_adr_i[30] I *D CF_SRAM_1024x32_wb_wrapper
*CAP
1 wbs_adr_i[30] 0.000697422
2 *646:wbs_adr_i[30] 0.001806
3 *566:17 0.0137983
4 *566:13 0.0144084
5 *566:9 0.00311347
6 *646:wbs_adr_i[30] *646:wbs_dat_i[30] 0
7 *646:wbs_adr_i[30] *599:15 0
8 *646:wbs_adr_i[30] *629:7 0
9 *646:wbs_adr_i[30] *629:9 0
10 *566:9 *599:13 0
11 *566:17 *588:13 0
12 *563:13 *566:17 0
*RES
1 wbs_adr_i[30] *566:9 11.5725 
2 *566:9 *566:13 44.57 
3 *566:13 *566:17 30.0792 
4 *566:17 *646:wbs_adr_i[30] 32.1825 
*END

*D_NET *567 0.0373977
*CONN
*P wbs_adr_i[31] I
*I *646:wbs_adr_i[31] I *D CF_SRAM_1024x32_wb_wrapper
*CAP
1 wbs_adr_i[31] 0.00146374
2 *646:wbs_adr_i[31] 0.0114762
3 *567:11 0.0144417
4 *567:9 0.00442927
5 *646:wbs_adr_i[31] *646:wbs_dat_i[31] 0
6 *646:wbs_adr_i[31] *631:5 0
7 *646:wbs_adr_i[21] *646:wbs_adr_i[31] 0.0055869
8 *646:wbs_adr_i[27] *646:wbs_adr_i[31] 0
*RES
1 wbs_adr_i[31] *567:9 26.2425 
2 *567:9 *567:11 54.045 
3 *567:11 *646:wbs_adr_i[31] 38.6601 
*END

*D_NET *568 0.0248616
*CONN
*P wbs_adr_i[3] I
*I *646:wbs_adr_i[3] I *D CF_SRAM_1024x32_wb_wrapper
*CAP
1 wbs_adr_i[3] 0.00175844
2 *646:wbs_adr_i[3] 0.00458942
3 *568:17 0.00634786
4 *646:wbs_adr_i[3] wbs_dat_o[3] 0.00179592
5 *646:wbs_adr_i[3] *646:wbs_dat_i[3] 0
6 *646:wbs_adr_i[3] *646:wbs_sel_i[2] 0
7 *646:wbs_adr_i[3] *604:7 0
8 *568:17 wbs_dat_o[0] 0.000647663
9 *568:17 wbs_dat_o[1] 0.00122764
10 *568:17 wbs_dat_o[4] 0.000608019
11 *568:17 *569:13 2.77839e-05
12 *568:17 *570:13 0.001774
13 *568:17 *587:33 0.000119028
14 *568:17 *598:23 0.00322486
15 *568:17 *601:21 0.000205699
16 *568:17 *602:13 0.000520972
17 *568:17 *603:19 0.000462637
18 *568:17 *640:19 7.33223e-05
19 *568:17 *642:25 0.00137693
20 *565:19 *568:17 0.000101392
*RES
1 wbs_adr_i[3] *568:17 11.3854 
2 *568:17 *646:wbs_adr_i[3] 83.1825 
*END

*D_NET *569 0.0199055
*CONN
*P wbs_adr_i[4] I
*I *646:wbs_adr_i[4] I *D CF_SRAM_1024x32_wb_wrapper
*CAP
1 wbs_adr_i[4] 0.000910946
2 *646:wbs_adr_i[4] 0.00377298
3 *569:13 0.00468393
4 *646:wbs_adr_i[4] wbs_dat_o[6] 0
5 *646:wbs_adr_i[4] *646:wbs_dat_i[4] 0
6 *646:wbs_adr_i[4] *646:wbs_sel_i[3] 0
7 *646:wbs_adr_i[4] *634:9 0
8 *646:wbs_adr_i[4] *636:15 0.00111678
9 *646:wbs_adr_i[4] *636:19 0.00231466
10 *569:13 wbs_dat_o[4] 0.00319447
11 *569:13 *571:11 0.000967801
12 *569:13 *603:19 0.000778808
13 *569:13 *642:25 0.000789019
14 *569:13 *643:11 0.00132849
15 *565:19 *569:13 1.97826e-05
16 *568:17 *569:13 2.77839e-05
*RES
1 wbs_adr_i[4] *569:13 8.6837 
2 *569:13 *646:wbs_adr_i[4] 84.7125 
*END

*D_NET *570 0.0170337
*CONN
*P wbs_adr_i[5] I
*I *646:wbs_adr_i[5] I *D CF_SRAM_1024x32_wb_wrapper
*CAP
1 wbs_adr_i[5] 0.000745309
2 *646:wbs_adr_i[5] 0.00401812
3 *570:13 0.00476343
4 *646:wbs_adr_i[5] *646:wbs_dat_i[5] 0
5 *646:wbs_adr_i[5] *572:13 0.00173742
6 *646:wbs_adr_i[5] *605:9 0
7 *646:wbs_adr_i[5] *634:7 0
8 *646:wbs_adr_i[5] *634:9 0
9 *570:13 wbs_dat_o[4] 0.00291211
10 *570:13 *571:11 0.000100756
11 *570:13 *603:19 0.00079052
12 *565:19 *570:13 0.000191982
13 *568:17 *570:13 0.001774
*RES
1 wbs_adr_i[5] *570:13 8.01857 
2 *570:13 *646:wbs_adr_i[5] 83.6925 
*END

*D_NET *571 0.0136032
*CONN
*P wbs_adr_i[6] I
*I *646:wbs_adr_i[6] I *D CF_SRAM_1024x32_wb_wrapper
*CAP
1 wbs_adr_i[6] 0.000962625
2 *646:wbs_adr_i[6] 0.00479084
3 *571:11 0.00575346
4 *646:wbs_adr_i[6] wbs_dat_o[7] 0
5 *646:wbs_adr_i[6] *646:wbs_dat_i[6] 0
6 *646:wbs_adr_i[6] *605:9 0
7 *646:wbs_adr_i[6] *605:11 0
8 *646:wbs_adr_i[6] *635:11 0
9 *646:wbs_adr_i[6] *637:15 0
10 *571:11 wbs_dat_o[4] 0.00021156
11 *571:11 *603:19 3.40334e-05
12 *571:11 *643:11 0.000782163
13 *569:13 *571:11 0.000967801
14 *570:13 *571:11 0.000100756
*RES
1 wbs_adr_i[6] *571:11 5.6169 
2 *571:11 *646:wbs_adr_i[6] 85.2225 
*END

*D_NET *572 0.0124673
*CONN
*P wbs_adr_i[7] I
*I *646:wbs_adr_i[7] I *D CF_SRAM_1024x32_wb_wrapper
*CAP
1 wbs_adr_i[7] 0.00183065
2 *646:wbs_adr_i[7] 0.0030663
3 *572:13 0.00489695
4 *646:wbs_adr_i[7] *646:wbs_dat_i[6] 0
5 *646:wbs_adr_i[7] *646:wbs_dat_i[7] 0
6 *646:wbs_adr_i[7] *573:17 0
7 *646:wbs_adr_i[7] *636:15 0
8 *646:wbs_adr_i[7] *637:11 0
9 *646:wbs_adr_i[7] *637:15 0
10 *572:13 *605:9 0
11 *572:13 *634:9 0.000936034
12 *646:wbs_adr_i[5] *572:13 0.00173742
*RES
1 wbs_adr_i[7] *572:13 48.4925 
2 *572:13 *646:wbs_adr_i[7] 42.4098 
*END

*D_NET *573 0.0101695
*CONN
*P wbs_adr_i[8] I
*I *646:wbs_adr_i[8] I *D CF_SRAM_1024x32_wb_wrapper
*CAP
1 wbs_adr_i[8] 0.00143679
2 *646:wbs_adr_i[8] 0.000809182
3 *573:17 0.00360546
4 *573:9 0.00423307
5 *646:wbs_adr_i[8] *646:wbs_dat_i[8] 0
6 *646:wbs_adr_i[8] *637:11 0
7 *573:17 *637:11 8.50075e-05
8 *646:wbs_adr_i[7] *573:17 0
*RES
1 wbs_adr_i[8] *573:9 26.2425 
2 *573:9 *573:17 48.0739 
3 *573:17 *646:wbs_adr_i[8] 14.3325 
*END

*D_NET *574 0.00996369
*CONN
*P wbs_adr_i[9] I
*I *646:wbs_adr_i[9] I *D CF_SRAM_1024x32_wb_wrapper
*CAP
1 wbs_adr_i[9] 0.000443342
2 *646:wbs_adr_i[9] 0.0045385
3 *574:13 0.00498184
4 *646:wbs_adr_i[9] *646:wbs_dat_i[9] 0
5 *646:wbs_adr_i[9] *638:5 0
*RES
1 wbs_adr_i[9] *574:13 11.68 
2 *574:13 *646:wbs_adr_i[9] 82.8 
*END

*D_NET *575 0.0289821
*CONN
*P wbs_cyc_i I
*I *646:wbs_cyc_i I *D CF_SRAM_1024x32_wb_wrapper
*CAP
1 wbs_cyc_i 0.00214729
2 *646:wbs_cyc_i 0.0045238
3 *575:21 0.00533457
4 *575:17 0.00295806
5 *646:wbs_cyc_i *646:wbs_stb_i 0
6 *646:wbs_cyc_i *646:wbs_we_i 0
7 *575:17 *576:19 0.00210611
8 *575:17 *587:33 0.000343683
9 *575:17 *598:23 8.7152e-06
10 *575:17 *645:21 0.00507836
11 *575:21 wbs_dat_o[2] 0.000238079
12 *575:21 *576:19 0.00295632
13 *575:21 *601:21 0.000413246
14 *575:21 *645:21 0.0028739
15 *540:13 *575:17 0
16 *541:13 *575:17 0
17 *542:5 *646:wbs_cyc_i 0
*RES
1 wbs_cyc_i *575:17 17.2074 
2 *575:17 *575:21 35.57 
3 *575:21 *646:wbs_cyc_i 81.78 
*END

*D_NET *576 0.0243949
*CONN
*P wbs_dat_i[0] I
*I *646:wbs_dat_i[0] I *D CF_SRAM_1024x32_wb_wrapper
*CAP
1 wbs_dat_i[0] 0.00344337
2 *646:wbs_dat_i[0] 0.00456803
3 *576:21 0.00456803
4 *576:19 0.00344337
5 *646:wbs_dat_i[0] *646:wbs_we_i 0
6 *646:wbs_dat_i[0] *608:5 0
7 *576:19 wbs_dat_o[2] 0.00156973
8 *576:19 *587:33 0.00109452
9 *576:19 *598:23 0.000501173
10 *576:19 *645:21 0.000144281
11 *646:wbs_adr_i[0] *646:wbs_dat_i[0] 0
12 *540:13 *576:19 0
13 *575:17 *576:19 0.00210611
14 *575:21 *576:19 0.00295632
*RES
1 wbs_dat_i[0] *576:19 48.1963 
2 *576:19 *576:21 2 
3 *576:21 *646:wbs_dat_i[0] 81.525 
*END

*D_NET *577 0.0115923
*CONN
*P wbs_dat_i[10] I
*I *646:wbs_dat_i[10] I *D CF_SRAM_1024x32_wb_wrapper
*CAP
1 wbs_dat_i[10] 0.00260349
2 *646:wbs_dat_i[10] 0.00319265
3 *577:13 0.00579614
4 *646:wbs_dat_i[10] *609:5 0
5 *577:13 *646:wbs_dat_i[12] 0
6 *577:13 *580:15 0
7 *577:13 *612:5 0
8 *646:wbs_adr_i[10] *646:wbs_dat_i[10] 0
*RES
1 wbs_dat_i[10] *577:13 31.9362 
2 *577:13 *646:wbs_dat_i[10] 58.1925 
*END

*D_NET *578 0.0147379
*CONN
*P wbs_dat_i[11] I
*I *646:wbs_dat_i[11] I *D CF_SRAM_1024x32_wb_wrapper
*CAP
1 wbs_dat_i[11] 0.00106112
2 *646:wbs_dat_i[11] 0.00458344
3 *578:11 0.00564456
4 *646:wbs_dat_i[11] wbs_dat_o[9] 0.00118269
5 *646:wbs_dat_i[11] *610:7 0
6 *646:wbs_dat_i[11] *610:9 0
7 *578:11 wbs_dat_o[13] 0.000504081
8 *578:11 wbs_dat_o[14] 0.000625175
9 *646:wbs_adr_i[11] *646:wbs_dat_i[11] 0
10 *545:11 *578:11 0.00113684
*RES
1 wbs_dat_i[11] *578:11 5.91283 
2 *578:11 *646:wbs_dat_i[11] 86.2425 
*END

*D_NET *579 0.0170569
*CONN
*P wbs_dat_i[12] I
*I *646:wbs_dat_i[12] I *D CF_SRAM_1024x32_wb_wrapper
*CAP
1 wbs_dat_i[12] 0.000991353
2 *646:wbs_dat_i[12] 0.00461202
3 *579:13 0.00560337
4 *646:wbs_dat_i[12] wbs_dat_o[12] 0.00107816
5 *579:13 wbs_dat_o[14] 0.00114006
6 *579:13 wbs_dat_o[16] 5.77378e-05
7 *579:13 wbs_dat_o[17] 0.000200156
8 *646:wbs_adr_i[12] *646:wbs_dat_i[12] 0
9 *646:wbs_adr_i[13] *646:wbs_dat_i[12] 0
10 *544:13 *646:wbs_dat_i[12] 0.000176609
11 *545:11 *579:13 0.00149725
12 *546:13 *579:13 0.00170021
13 *577:13 *646:wbs_dat_i[12] 0
*RES
1 wbs_dat_i[12] *579:13 7.86797 
2 *579:13 *646:wbs_dat_i[12] 84.7125 
*END

*D_NET *580 0.0162037
*CONN
*P wbs_dat_i[13] I
*I *646:wbs_dat_i[13] I *D CF_SRAM_1024x32_wb_wrapper
*CAP
1 wbs_dat_i[13] 0.00186654
2 *646:wbs_dat_i[13] 0.00140257
3 *580:15 0.00465033
4 *580:13 0.00511429
5 *646:wbs_dat_i[13] *612:5 0
6 *580:13 wbs_dat_o[10] 0.000320439
7 *580:13 wbs_dat_o[11] 0.000437674
8 *580:13 wbs_dat_o[15] 0.00136021
9 *580:13 wbs_dat_o[19] 0.000696153
10 *580:15 *612:5 0
11 *646:wbs_adr_i[13] *646:wbs_dat_i[13] 0
12 *553:13 *580:13 0.000355484
13 *577:13 *580:15 0
*RES
1 wbs_dat_i[13] *580:13 12.2681 
2 *580:13 *580:15 57.36 
3 *580:15 *646:wbs_dat_i[13] 24.8475 
*END

*D_NET *581 0.0164577
*CONN
*P wbs_dat_i[14] I
*I *646:wbs_dat_i[14] I *D CF_SRAM_1024x32_wb_wrapper
*CAP
1 wbs_dat_i[14] 0.00473104
2 *646:wbs_dat_i[14] 0.00317139
3 *581:13 0.00790243
4 *646:wbs_dat_i[14] *613:5 0
5 *581:13 *582:13 0
6 *581:13 *590:13 0.000652797
7 *581:13 *591:13 0
8 *581:13 *623:9 0
9 *646:wbs_adr_i[14] *646:wbs_dat_i[14] 0
10 *646:wbs_adr_i[23] *581:13 0
11 *551:13 *581:13 0
*RES
1 wbs_dat_i[14] *581:13 37.6948 
2 *581:13 *646:wbs_dat_i[14] 57.6825 
*END

*D_NET *582 0.0192795
*CONN
*P wbs_dat_i[15] I
*I *646:wbs_dat_i[15] I *D CF_SRAM_1024x32_wb_wrapper
*CAP
1 wbs_dat_i[15] 0.00480315
2 *646:wbs_dat_i[15] 0.00289048
3 *582:13 0.00769363
4 *646:wbs_dat_i[15] *614:5 0
5 *582:13 *585:17 0
6 *582:13 *591:13 0.00155809
7 *582:13 *625:5 0
8 *646:wbs_adr_i[15] *646:wbs_dat_i[15] 0
9 *646:wbs_adr_i[26] *582:13 0.00233416
10 *581:13 *582:13 0
*RES
1 wbs_dat_i[15] *582:13 44.1349 
2 *582:13 *646:wbs_dat_i[15] 52.5825 
*END

*D_NET *583 0.0205312
*CONN
*P wbs_dat_i[16] I
*I *646:wbs_dat_i[16] I *D CF_SRAM_1024x32_wb_wrapper
*CAP
1 wbs_dat_i[16] 7.07382e-05
2 *646:wbs_dat_i[16] 0.00561896
3 *583:11 0.00786396
4 *583:9 0.00231574
5 *646:wbs_dat_i[16] *614:5 0
6 *646:wbs_dat_i[16] *615:5 0
7 *583:9 *628:11 1.31282e-05
8 *583:11 *646:wbs_dat_i[29] 0
9 *583:11 *628:5 0.00301731
10 *583:11 *628:11 0.00117549
11 *646:wbs_adr_i[16] *646:wbs_dat_i[16] 0
12 *646:wbs_adr_i[25] *646:wbs_dat_i[16] 0
13 *563:13 *646:wbs_dat_i[16] 0.000455911
*RES
1 wbs_dat_i[16] *583:9 1.1175 
2 *583:9 *583:11 58.245 
3 *583:11 *646:wbs_dat_i[16] 38.4481 
*END

*D_NET *584 0.022598
*CONN
*P wbs_dat_i[17] I
*I *646:wbs_dat_i[17] I *D CF_SRAM_1024x32_wb_wrapper
*CAP
1 wbs_dat_i[17] 0.0046971
2 *646:wbs_dat_i[17] 0.00407481
3 *584:13 0.00877191
4 *646:wbs_dat_i[17] *615:5 0
5 *646:wbs_dat_i[17] *616:5 0
6 *584:13 *592:13 0
7 *584:13 *595:13 0.00211443
8 *584:13 *600:15 0
9 *584:13 *631:5 0
10 *646:wbs_adr_i[17] *646:wbs_dat_i[17] 0
11 *548:13 *584:13 0.00293974
12 *555:13 *584:13 0
*RES
1 wbs_dat_i[17] *584:13 26.2502 
2 *584:13 *646:wbs_dat_i[17] 73.4925 
*END

*D_NET *585 0.0237511
*CONN
*P wbs_dat_i[18] I
*I *646:wbs_dat_i[18] I *D CF_SRAM_1024x32_wb_wrapper
*CAP
1 wbs_dat_i[18] 0.00246569
2 *646:wbs_dat_i[18] 0.00262859
3 *585:17 0.00723037
4 *585:13 0.00706746
5 *646:wbs_dat_i[18] *616:5 0
6 *646:wbs_dat_i[18] *617:5 0
7 *585:17 *586:13 0
8 *585:17 *594:13 0.00435896
9 *585:17 *596:13 0
10 *646:wbs_adr_i[18] *646:wbs_dat_i[18] 0
11 *582:13 *585:17 0
*RES
1 wbs_dat_i[18] *585:13 40.1525 
2 *585:13 *585:17 14.1724 
3 *585:17 *646:wbs_dat_i[18] 47.4825 
*END

*D_NET *586 0.0244207
*CONN
*P wbs_dat_i[19] I
*I *646:wbs_dat_i[19] I *D CF_SRAM_1024x32_wb_wrapper
*CAP
1 wbs_dat_i[19] 0.00264386
2 *646:wbs_dat_i[19] 0.00235207
3 *586:13 0.00722288
4 *586:9 0.00751467
5 *646:wbs_dat_i[19] *618:5 0
6 *586:13 *588:13 0
7 *586:13 *596:13 0.00468717
8 *586:13 *597:13 0
9 *646:wbs_adr_i[19] *646:wbs_dat_i[19] 0
10 *585:17 *586:13 0
*RES
1 wbs_dat_i[19] *586:9 44.6975 
2 *586:9 *586:13 15.3377 
3 *586:13 *646:wbs_dat_i[19] 42.3825 
*END

*D_NET *587 0.0244433
*CONN
*P wbs_dat_i[1] I
*I *646:wbs_dat_i[1] I *D CF_SRAM_1024x32_wb_wrapper
*CAP
1 wbs_dat_i[1] 0.00366423
2 *646:wbs_dat_i[1] 0.00460081
3 *587:33 0.00826504
4 *646:wbs_dat_i[1] *646:wbs_sel_i[0] 0
5 *646:wbs_dat_i[1] *619:5 0
6 *587:33 wbs_dat_o[0] 0.000884712
7 *587:33 wbs_dat_o[1] 0.00259582
8 *587:33 wbs_dat_o[2] 0.000461918
9 *587:33 *598:23 0.000333313
10 *587:33 *601:21 6.60656e-05
11 *587:33 *640:19 0.000333357
12 *646:wbs_adr_i[1] *646:wbs_dat_i[1] 0
13 *565:19 *587:33 0.00168076
14 *568:17 *587:33 0.000119028
15 *575:17 *587:33 0.000343683
16 *576:19 *587:33 0.00109452
*RES
1 wbs_dat_i[1] *587:33 40.4998 
2 *587:33 *646:wbs_dat_i[1] 83.055 
*END

*D_NET *588 0.0259932
*CONN
*P wbs_dat_i[20] I
*I *646:wbs_dat_i[20] I *D CF_SRAM_1024x32_wb_wrapper
*CAP
1 wbs_dat_i[20] 0.0029183
2 *646:wbs_dat_i[20] 0.00157517
3 *588:13 0.00668334
4 *588:9 0.00802648
5 *646:wbs_dat_i[20] *620:5 0
6 *588:13 *597:13 0.00562814
7 *646:wbs_adr_i[20] *646:wbs_dat_i[20] 0
8 *547:15 *646:wbs_dat_i[20] 0.00116181
9 *566:17 *588:13 0
10 *586:13 *588:13 0
*RES
1 wbs_dat_i[20] *588:9 49.7975 
2 *588:9 *588:13 16.7361 
3 *588:13 *646:wbs_dat_i[20] 37.2825 
*END

*D_NET *589 0.0281588
*CONN
*P wbs_dat_i[21] I
*I *646:wbs_dat_i[21] I *D CF_SRAM_1024x32_wb_wrapper
*CAP
1 wbs_dat_i[21] 0.00163568
2 *646:wbs_dat_i[21] 0.00666402
3 *589:13 0.00912201
4 *589:9 0.00409367
5 *646:wbs_dat_i[21] *620:5 0
6 *646:wbs_dat_i[21] *621:5 0
7 *646:wbs_adr_i[18] *646:wbs_dat_i[21] 0.00664338
8 *646:wbs_adr_i[21] *646:wbs_dat_i[21] 0
9 *646:wbs_adr_i[25] *646:wbs_dat_i[21] 0
10 *646:wbs_adr_i[27] *646:wbs_dat_i[21] 0
*RES
1 wbs_dat_i[21] *589:9 26.7525 
2 *589:9 *589:13 44.345 
3 *589:13 *646:wbs_dat_i[21] 35.0753 
*END

*D_NET *590 0.0260262
*CONN
*P wbs_dat_i[22] I
*I *646:wbs_dat_i[22] I *D CF_SRAM_1024x32_wb_wrapper
*CAP
1 wbs_dat_i[22] 0.0091664
2 *646:wbs_dat_i[22] 0.0032588
3 *590:13 0.0124252
4 *646:wbs_dat_i[22] wbs_dat_o[22] 0.00052301
5 *590:13 *591:13 0
6 *590:13 *593:13 0
7 *646:wbs_adr_i[22] *646:wbs_dat_i[22] 0
8 *646:wbs_adr_i[23] *646:wbs_dat_i[22] 0
9 *551:13 *590:13 0
10 *581:13 *590:13 0.000652797
*RES
1 wbs_dat_i[22] *590:13 48.1389 
2 *590:13 *646:wbs_dat_i[22] 58.1925 
*END

*D_NET *591 0.0266948
*CONN
*P wbs_dat_i[23] I
*I *646:wbs_dat_i[23] I *D CF_SRAM_1024x32_wb_wrapper
*CAP
1 wbs_dat_i[23] 0.00208763
2 *646:wbs_dat_i[23] 0.00297142
3 *591:13 0.0104807
4 *591:9 0.00959695
5 *646:wbs_dat_i[23] *623:7 0
6 *646:wbs_dat_i[23] *623:9 0
7 *591:13 *594:13 0
8 *646:wbs_adr_i[23] *646:wbs_dat_i[23] 0
9 *558:13 *591:9 0
10 *581:13 *591:13 0
11 *582:13 *591:13 0.00155809
12 *590:13 *591:13 0
*RES
1 wbs_dat_i[23] *591:9 34.1675 
2 *591:9 *591:13 20.7565 
3 *591:13 *646:wbs_dat_i[23] 53.0925 
*END

*D_NET *592 0.0272428
*CONN
*P wbs_dat_i[24] I
*I *646:wbs_dat_i[24] I *D CF_SRAM_1024x32_wb_wrapper
*CAP
1 wbs_dat_i[24] 0.00957636
2 *646:wbs_dat_i[24] 0.00383675
3 *592:13 0.0134131
4 *646:wbs_dat_i[24] *624:5 0
5 *592:13 *593:13 0
6 *646:wbs_adr_i[24] *646:wbs_dat_i[24] 0
7 *549:13 *592:13 0.000416561
8 *584:13 *592:13 0
*RES
1 wbs_dat_i[24] *592:13 40.9642 
2 *592:13 *646:wbs_dat_i[24] 68.3925 
*END

*D_NET *593 0.0302542
*CONN
*P wbs_dat_i[25] I
*I *646:wbs_dat_i[25] I *D CF_SRAM_1024x32_wb_wrapper
*CAP
1 wbs_dat_i[25] 0.0101712
2 *646:wbs_dat_i[25] 0.00355481
3 *593:13 0.013726
4 *646:wbs_dat_i[25] *624:5 0
5 *646:wbs_dat_i[25] *625:5 0
6 *646:wbs_adr_i[25] *646:wbs_dat_i[25] 0
7 *551:13 *593:13 0.00280216
8 *590:13 *593:13 0
9 *592:13 *593:13 0
*RES
1 wbs_dat_i[25] *593:13 47.6322 
2 *593:13 *646:wbs_dat_i[25] 63.2925 
*END

*D_NET *594 0.0318593
*CONN
*P wbs_dat_i[26] I
*I *646:wbs_dat_i[26] I *D CF_SRAM_1024x32_wb_wrapper
*CAP
1 wbs_dat_i[26] 0.00222672
2 *646:wbs_dat_i[26] 0.00269076
3 *594:13 0.0115234
4 *594:9 0.0110594
5 *646:wbs_dat_i[26] *626:5 0
6 *594:13 *596:13 0
7 *646:wbs_adr_i[26] *646:wbs_dat_i[26] 0
8 *585:17 *594:13 0.00435896
9 *591:13 *594:13 0
*RES
1 wbs_dat_i[26] *594:9 39.0875 
2 *594:9 *594:13 24.9517 
3 *594:13 *646:wbs_dat_i[26] 47.9925 
*END

*D_NET *595 0.0317993
*CONN
*P wbs_dat_i[27] I
*I *646:wbs_dat_i[27] I *D CF_SRAM_1024x32_wb_wrapper
*CAP
1 wbs_dat_i[27] 0.00997029
2 *646:wbs_dat_i[27] 0.00416952
3 *595:13 0.0141398
4 *646:wbs_dat_i[27] *626:5 0
5 *646:wbs_dat_i[27] *627:5 0
6 *595:13 wbs_dat_o[20] 0
7 *646:wbs_adr_i[27] *646:wbs_dat_i[27] 0
8 *555:13 *595:13 0.00140527
9 *557:13 *595:13 0
10 *558:13 *595:13 0
11 *559:13 *595:13 0
12 *561:13 *595:13 0
13 *584:13 *595:13 0.00211443
*RES
1 wbs_dat_i[27] *595:13 39.2044 
2 *595:13 *646:wbs_dat_i[27] 74.0025 
*END

*D_NET *596 0.033829
*CONN
*P wbs_dat_i[28] I
*I *646:wbs_dat_i[28] I *D CF_SRAM_1024x32_wb_wrapper
*CAP
1 wbs_dat_i[28] 0.00243705
2 *646:wbs_dat_i[28] 0.0024116
3 *596:13 0.0121339
4 *596:9 0.0121593
5 *646:wbs_dat_i[28] *628:5 0
6 *596:13 *597:13 0
7 *646:wbs_adr_i[28] *646:wbs_dat_i[28] 0
8 *550:11 *646:wbs_dat_i[28] 0
9 *585:17 *596:13 0
10 *586:13 *596:13 0.00468717
11 *594:13 *596:13 0
*RES
1 wbs_dat_i[28] *596:9 43.6775 
2 *596:9 *596:13 27.6903 
3 *596:13 *646:wbs_dat_i[28] 42.8925 
*END

*D_NET *597 0.0352867
*CONN
*P wbs_dat_i[29] I
*I *646:wbs_dat_i[29] I *D CF_SRAM_1024x32_wb_wrapper
*CAP
1 wbs_dat_i[29] 0.0027036
2 *646:wbs_dat_i[29] 0.00212389
3 *597:13 0.0119211
4 *597:9 0.0125008
5 *646:wbs_dat_i[29] *628:5 0
6 *646:wbs_dat_i[29] *629:7 0
7 *646:wbs_dat_i[29] *629:9 0
8 *646:wbs_adr_i[29] *646:wbs_dat_i[29] 0.000409222
9 *583:11 *646:wbs_dat_i[29] 0
10 *586:13 *597:13 0
11 *588:13 *597:13 0.00562814
12 *596:13 *597:13 0
*RES
1 wbs_dat_i[29] *597:9 48.7775 
2 *597:9 *597:13 29.0887 
3 *597:13 *646:wbs_dat_i[29] 37.7925 
*END

*D_NET *598 0.0228301
*CONN
*P wbs_dat_i[2] I
*I *646:wbs_dat_i[2] I *D CF_SRAM_1024x32_wb_wrapper
*CAP
1 wbs_dat_i[2] 0.00168646
2 *646:wbs_dat_i[2] 0.00452182
3 *598:23 0.00620828
4 *646:wbs_dat_i[2] *646:wbs_sel_i[2] 0
5 *646:wbs_dat_i[2] *630:5 0
6 *598:23 wbs_dat_o[1] 0.000669635
7 *598:23 wbs_dat_o[2] 0.00189763
8 *598:23 *601:21 0.00149779
9 *598:23 *608:5 4.70051e-05
10 *598:23 *642:25 0.00141186
11 *598:23 *645:21 0.000821527
12 *646:wbs_adr_i[2] *646:wbs_dat_i[2] 0
13 *568:17 *598:23 0.00322486
14 *575:17 *598:23 8.7152e-06
15 *576:19 *598:23 0.000501173
16 *587:33 *598:23 0.000333313
*RES
1 wbs_dat_i[2] *598:23 30.0635 
2 *598:23 *646:wbs_dat_i[2] 82.035 
*END

*D_NET *599 0.0366015
*CONN
*P wbs_dat_i[30] I
*I *646:wbs_dat_i[30] I *D CF_SRAM_1024x32_wb_wrapper
*CAP
1 wbs_dat_i[30] 0.0089433
2 *646:wbs_dat_i[30] 0.00143099
3 *599:15 0.00377144
4 *599:13 0.0112838
5 *646:wbs_dat_i[30] *631:5 0
6 *599:13 wbs_dat_o[17] 0.000822982
7 *599:13 wbs_dat_o[18] 0.000846737
8 *599:13 wbs_dat_o[19] 0.00216217
9 *599:13 wbs_dat_o[21] 0.00188038
10 *599:13 wbs_dat_o[22] 7.21295e-05
11 *599:13 wbs_dat_o[24] 0.00135009
12 *599:13 wbs_dat_o[27] 0.00105851
13 *599:15 *631:5 0.00295642
14 *646:wbs_adr_i[29] *599:13 2.25397e-05
15 *646:wbs_adr_i[30] *646:wbs_dat_i[30] 0
16 *646:wbs_adr_i[30] *599:15 0
17 *551:13 *599:15 0
18 *561:13 *599:13 0
19 *566:9 *599:13 0
*RES
1 wbs_dat_i[30] *599:13 33.9282 
2 *599:13 *599:15 58.89 
3 *599:15 *646:wbs_dat_i[30] 25.5375 
*END

*D_NET *600 0.0588482
*CONN
*P wbs_dat_i[31] I
*I *646:wbs_dat_i[31] I *D CF_SRAM_1024x32_wb_wrapper
*CAP
1 wbs_dat_i[31] 0.000143752
2 *646:wbs_dat_i[31] 0.00141423
3 *600:15 0.00509253
4 *600:13 0.0036783
5 *600:11 0.002684
6 *600:9 0.00282775
7 *646:wbs_dat_i[31] *631:5 0
8 *646:wbs_dat_i[31] *632:7 0
9 *646:wbs_dat_i[31] *632:9 0
10 *600:11 wbs_dat_o[27] 0.00329561
11 *600:11 *629:13 8.80056e-05
12 *600:11 *631:9 0.0193914
13 *600:11 *632:13 0.0202327
14 *600:15 *632:9 0
15 *646:wbs_adr_i[31] *646:wbs_dat_i[31] 0
16 *584:13 *600:15 0
*RES
1 wbs_dat_i[31] *600:9 3.665 
2 *600:9 *600:11 184.335 
3 *600:11 *600:13 2 
4 *600:13 *600:15 61.5675 
5 *600:15 *646:wbs_dat_i[31] 24.8475 
*END

*D_NET *601 0.0232686
*CONN
*P wbs_dat_i[3] I
*I *646:wbs_dat_i[3] I *D CF_SRAM_1024x32_wb_wrapper
*CAP
1 wbs_dat_i[3] 0.00193183
2 *646:wbs_dat_i[3] 0.00319154
3 *601:21 0.00512337
4 *646:wbs_dat_i[3] wbs_dat_o[3] 0.0015552
5 *646:wbs_dat_i[3] *646:wbs_dat_i[6] 0.00113289
6 *646:wbs_dat_i[3] *646:wbs_sel_i[3] 0
7 *646:wbs_dat_i[3] *604:7 0.00296385
8 *601:21 wbs_dat_o[2] 0.00320828
9 *601:21 wbs_dat_o[3] 0
10 *601:21 *646:wbs_sel_i[0] 1.62899e-05
11 *601:21 *602:13 0.00102987
12 *601:21 *640:19 0.000470165
13 *601:21 *642:25 7.81829e-05
14 *601:21 *645:21 0.000384307
15 *646:wbs_adr_i[3] *646:wbs_dat_i[3] 0
16 *568:17 *601:21 0.000205699
17 *575:21 *601:21 0.000413246
18 *587:33 *601:21 6.60656e-05
19 *598:23 *601:21 0.00149779
*RES
1 wbs_dat_i[3] *601:21 30.8978 
2 *601:21 *646:wbs_dat_i[3] 81.525 
*END

*D_NET *602 0.0160466
*CONN
*P wbs_dat_i[4] I
*I *646:wbs_dat_i[4] I *D CF_SRAM_1024x32_wb_wrapper
*CAP
1 wbs_dat_i[4] 0.00232442
2 *646:wbs_dat_i[4] 0.00449963
3 *602:13 0.00682405
4 *646:wbs_dat_i[4] *634:7 0
5 *646:wbs_dat_i[4] *634:9 0
6 *602:13 wbs_dat_o[2] 7.96104e-06
7 *602:13 wbs_dat_o[4] 0
8 *602:13 *646:wbs_we_i 9.68083e-06
9 *602:13 *603:19 0.000830037
10 *602:13 *642:25 0
11 *646:wbs_adr_i[4] *646:wbs_dat_i[4] 0
12 *568:17 *602:13 0.000520972
13 *601:21 *602:13 0.00102987
*RES
1 wbs_dat_i[4] *602:13 11.5643 
2 *602:13 *646:wbs_dat_i[4] 81.6525 
*END

*D_NET *603 0.0156314
*CONN
*P wbs_dat_i[5] I
*I *646:wbs_dat_i[5] I *D CF_SRAM_1024x32_wb_wrapper
*CAP
1 wbs_dat_i[5] 0.000999288
2 *646:wbs_dat_i[5] 0.00344345
3 *603:19 0.00444273
4 *646:wbs_dat_i[5] *605:9 0.00109183
5 *646:wbs_dat_i[5] *605:11 0.00197317
6 *646:wbs_dat_i[5] *635:11 0
7 *603:19 *643:11 0.000784941
8 *646:wbs_adr_i[2] *603:19 0
9 *646:wbs_adr_i[5] *646:wbs_dat_i[5] 0
10 *568:17 *603:19 0.000462637
11 *569:13 *603:19 0.000778808
12 *570:13 *603:19 0.00079052
13 *571:11 *603:19 3.40334e-05
14 *602:13 *603:19 0.000830037
*RES
1 wbs_dat_i[5] *603:19 9.89717 
2 *603:19 *646:wbs_dat_i[5] 82.6725 
*END

*D_NET *604 0.0144713
*CONN
*P wbs_dat_i[6] I
*I *646:wbs_dat_i[6] I *D CF_SRAM_1024x32_wb_wrapper
*CAP
1 wbs_dat_i[6] 4.08978e-05
2 *646:wbs_dat_i[6] 0.00229703
3 *604:7 0.00464559
4 *604:5 0.00238945
5 *646:wbs_dat_i[6] wbs_dat_o[3] 0.000177716
6 *646:wbs_dat_i[6] *646:wbs_sel_i[3] 0
7 *646:wbs_dat_i[6] *636:15 0
8 *604:7 wbs_dat_o[3] 0.000823869
9 *604:7 *646:wbs_sel_i[3] 0
10 *646:wbs_adr_i[3] *604:7 0
11 *646:wbs_adr_i[6] *646:wbs_dat_i[6] 0
12 *646:wbs_adr_i[7] *646:wbs_dat_i[6] 0
13 *646:wbs_dat_i[3] *646:wbs_dat_i[6] 0.00113289
14 *646:wbs_dat_i[3] *604:7 0.00296385
*RES
1 wbs_dat_i[6] *604:5 0.7425 
2 *604:5 *604:7 60.93 
3 *604:7 *646:wbs_dat_i[6] 28.8456 
*END

*D_NET *605 0.0123184
*CONN
*P wbs_dat_i[7] I
*I *646:wbs_dat_i[7] I *D CF_SRAM_1024x32_wb_wrapper
*CAP
1 wbs_dat_i[7] 0.00111107
2 *646:wbs_dat_i[7] 0.00066564
3 *605:11 0.00311899
4 *605:9 0.00356442
5 *646:wbs_dat_i[7] *635:11 9.75512e-05
6 *646:wbs_dat_i[7] *636:15 0.000669031
7 *646:wbs_dat_i[7] *637:11 0
8 *605:11 *635:11 2.67006e-05
9 *646:wbs_adr_i[5] *605:9 0
10 *646:wbs_adr_i[6] *605:9 0
11 *646:wbs_adr_i[6] *605:11 0
12 *646:wbs_adr_i[7] *646:wbs_dat_i[7] 0
13 *646:wbs_dat_i[5] *605:9 0.00109183
14 *646:wbs_dat_i[5] *605:11 0.00197317
15 *572:13 *605:9 0
*RES
1 wbs_dat_i[7] *605:9 25.8975 
2 *605:9 *605:11 57.615 
3 *605:11 *646:wbs_dat_i[7] 5.7237 
*END

*D_NET *606 0.00978826
*CONN
*P wbs_dat_i[8] I
*I *646:wbs_dat_i[8] I *D CF_SRAM_1024x32_wb_wrapper
*CAP
1 wbs_dat_i[8] 0.00155477
2 *646:wbs_dat_i[8] 0.00333936
3 *606:9 0.00489413
4 *646:wbs_dat_i[8] *638:5 0
5 *646:wbs_adr_i[8] *646:wbs_dat_i[8] 0
*RES
1 wbs_dat_i[8] *606:9 27.2775 
2 *606:9 *646:wbs_dat_i[8] 60.6225 
*END

*D_NET *607 0.0105369
*CONN
*P wbs_dat_i[9] I
*I *646:wbs_dat_i[9] I *D CF_SRAM_1024x32_wb_wrapper
*CAP
1 wbs_dat_i[9] 0.000951288
2 *646:wbs_dat_i[9] 0.00408563
3 *607:13 0.00503691
4 *646:wbs_dat_i[9] *639:5 0
5 *607:13 wbs_dat_o[10] 0.000377964
6 *607:13 wbs_dat_o[9] 8.51557e-05
7 *646:wbs_adr_i[10] *646:wbs_dat_i[9] 0
8 *646:wbs_adr_i[10] *607:13 0
9 *646:wbs_adr_i[9] *646:wbs_dat_i[9] 0
*RES
1 wbs_dat_i[9] *607:13 14.276 
2 *607:13 *646:wbs_dat_i[9] 74.5125 
*END

*D_NET *608 0.0243799
*CONN
*P wbs_dat_o[0] O
*I *646:wbs_dat_o[0] O *D CF_SRAM_1024x32_wb_wrapper
*CAP
1 wbs_dat_o[0] 0.00270235
2 *646:wbs_dat_o[0] 0.0046292
3 *608:5 0.00733155
4 wbs_dat_o[0] wbs_dat_o[1] 0.00133603
5 wbs_dat_o[0] *640:19 0.00441192
6 wbs_dat_o[0] *642:25 0.000419917
7 wbs_dat_o[0] *645:21 0.000861091
8 *608:5 *646:wbs_sel_i[0] 0
9 *646:wbs_dat_i[0] *608:5 0
10 *565:19 wbs_dat_o[0] 0.00110847
11 *568:17 wbs_dat_o[0] 0.000647663
12 *587:33 wbs_dat_o[0] 0.000884712
13 *598:23 *608:5 4.70051e-05
*RES
1 *646:wbs_dat_o[0] *608:5 83.565 
2 *608:5 wbs_dat_o[0] 46.4383 
*END

*D_NET *609 0.0132157
*CONN
*P wbs_dat_o[10] O
*I *646:wbs_dat_o[10] O *D CF_SRAM_1024x32_wb_wrapper
*CAP
1 wbs_dat_o[10] 0.00224259
2 *646:wbs_dat_o[10] 0.00339378
3 *609:5 0.00563637
4 wbs_dat_o[10] wbs_dat_o[11] 0.000724697
5 wbs_dat_o[10] *612:5 0
6 *646:wbs_adr_i[10] wbs_dat_o[10] 0
7 *646:wbs_adr_i[10] *609:5 0
8 *646:wbs_adr_i[11] wbs_dat_o[10] 0
9 *646:wbs_adr_i[11] *609:5 0
10 *646:wbs_dat_i[10] *609:5 0
11 *544:13 wbs_dat_o[10] 0.000519889
12 *545:11 wbs_dat_o[10] 0
13 *580:13 wbs_dat_o[10] 0.000320439
14 *607:13 wbs_dat_o[10] 0.000377964
*RES
1 *646:wbs_dat_o[10] *609:5 60.6225 
2 *609:5 wbs_dat_o[10] 30.2988 
*END

*D_NET *610 0.0152613
*CONN
*P wbs_dat_o[11] O
*I *646:wbs_dat_o[11] O *D CF_SRAM_1024x32_wb_wrapper
*CAP
1 wbs_dat_o[11] 0.000864187
2 *646:wbs_dat_o[11] 0.00135913
3 *610:9 0.00411518
4 *610:7 0.00461013
5 wbs_dat_o[11] wbs_dat_o[15] 0.00047545
6 wbs_dat_o[11] *615:5 2.99518e-06
7 *610:9 wbs_dat_o[9] 0
8 wbs_dat_o[10] wbs_dat_o[11] 0.000724697
9 *646:wbs_adr_i[12] *610:7 0
10 *646:wbs_adr_i[12] *610:9 0
11 *646:wbs_dat_i[11] *610:7 0
12 *646:wbs_dat_i[11] *610:9 0
13 *545:11 wbs_dat_o[11] 5.28564e-05
14 *546:13 wbs_dat_o[11] 0.00261895
15 *580:13 wbs_dat_o[11] 0.000437674
*RES
1 *646:wbs_dat_o[11] *610:7 24.8475 
2 *610:7 *610:9 58.89 
3 *610:9 wbs_dat_o[11] 8.75243 
*END

*D_NET *611 0.0181627
*CONN
*P wbs_dat_o[12] O
*I *646:wbs_dat_o[12] O *D CF_SRAM_1024x32_wb_wrapper
*CAP
1 wbs_dat_o[12] 0.008474
2 *646:wbs_dat_o[12] 0.008474
3 wbs_dat_o[12] wbs_dat_o[14] 8.59615e-05
4 wbs_dat_o[12] wbs_dat_o[18] 5.05905e-05
5 *646:wbs_dat_i[12] wbs_dat_o[12] 0.00107816
*RES
1 *646:wbs_dat_o[12] wbs_dat_o[12] 18.6654 
*END

*D_NET *612 0.0170211
*CONN
*P wbs_dat_o[13] O
*I *646:wbs_dat_o[13] O *D CF_SRAM_1024x32_wb_wrapper
*CAP
1 wbs_dat_o[13] 0.00248999
2 *646:wbs_dat_o[13] 0.00493719
3 *612:5 0.00742718
4 wbs_dat_o[13] wbs_dat_o[14] 0.00166264
5 wbs_dat_o[10] *612:5 0
6 *646:wbs_adr_i[14] *612:5 0
7 *646:wbs_dat_i[13] *612:5 0
8 *577:13 *612:5 0
9 *578:11 wbs_dat_o[13] 0.000504081
10 *580:15 *612:5 0
*RES
1 *646:wbs_dat_o[13] *612:5 86.115 
2 *612:5 wbs_dat_o[13] 46.825 
*END

*D_NET *613 0.0194401
*CONN
*P wbs_dat_o[14] O
*I *646:wbs_dat_o[14] O *D CF_SRAM_1024x32_wb_wrapper
*CAP
1 wbs_dat_o[14] 0.00229168
2 *646:wbs_dat_o[14] 0.00475508
3 *613:5 0.00704676
4 wbs_dat_o[14] wbs_dat_o[17] 8.38807e-05
5 wbs_dat_o[14] wbs_dat_o[18] 0.000714067
6 wbs_dat_o[14] wbs_dat_o[21] 0.00089172
7 wbs_dat_o[12] wbs_dat_o[14] 8.59615e-05
8 wbs_dat_o[13] wbs_dat_o[14] 0.00166264
9 *646:wbs_adr_i[14] *613:5 0
10 *646:wbs_adr_i[15] *613:5 0
11 *646:wbs_dat_i[14] *613:5 0
12 *545:11 wbs_dat_o[14] 0.000143103
13 *578:11 wbs_dat_o[14] 0.000625175
14 *579:13 wbs_dat_o[14] 0.00114006
*RES
1 *646:wbs_dat_o[14] *613:5 85.7325 
2 *613:5 wbs_dat_o[14] 10.4576 
*END

*D_NET *614 0.0240993
*CONN
*P wbs_dat_o[15] O
*I *646:wbs_dat_o[15] O *D CF_SRAM_1024x32_wb_wrapper
*CAP
1 wbs_dat_o[15] 0.00136343
2 *646:wbs_dat_o[15] 0.00457393
3 *614:5 0.00593736
4 wbs_dat_o[15] wbs_dat_o[16] 0.00601085
5 wbs_dat_o[15] wbs_dat_o[19] 0.00422018
6 wbs_dat_o[15] *626:5 0.000103377
7 wbs_dat_o[11] wbs_dat_o[15] 0.00047545
8 *646:wbs_adr_i[15] *614:5 0
9 *646:wbs_adr_i[16] *614:5 0
10 *646:wbs_dat_i[15] *614:5 0
11 *646:wbs_dat_i[16] *614:5 0
12 *546:13 wbs_dat_o[15] 5.45185e-05
13 *580:13 wbs_dat_o[15] 0.00136021
*RES
1 *646:wbs_dat_o[15] *614:5 82.6725 
2 *614:5 wbs_dat_o[15] 14.511 
*END

*D_NET *615 0.0265394
*CONN
*P wbs_dat_o[16] O
*I *646:wbs_dat_o[16] O *D CF_SRAM_1024x32_wb_wrapper
*CAP
1 wbs_dat_o[16] 0.00143514
2 *646:wbs_dat_o[16] 0.0046408
3 *615:5 0.00607594
4 wbs_dat_o[16] wbs_dat_o[17] 0.00695603
5 wbs_dat_o[16] wbs_dat_o[19] 0.000897266
6 wbs_dat_o[11] *615:5 2.99518e-06
7 wbs_dat_o[15] wbs_dat_o[16] 0.00601085
8 *646:wbs_adr_i[17] *615:5 0
9 *646:wbs_dat_i[16] *615:5 0
10 *646:wbs_dat_i[17] *615:5 0
11 *546:13 wbs_dat_o[16] 0.00046263
12 *579:13 wbs_dat_o[16] 5.77378e-05
*RES
1 *646:wbs_dat_o[16] *615:5 83.1825 
2 *615:5 wbs_dat_o[16] 15.3994 
*END

*D_NET *616 0.0288263
*CONN
*P wbs_dat_o[17] O
*I *646:wbs_dat_o[17] O *D CF_SRAM_1024x32_wb_wrapper
*CAP
1 wbs_dat_o[17] 0.00165785
2 *646:wbs_dat_o[17] 0.00467096
3 *616:5 0.00632881
4 wbs_dat_o[17] wbs_dat_o[18] 0.00782891
5 wbs_dat_o[17] wbs_dat_o[19] 0.000276698
6 wbs_dat_o[14] wbs_dat_o[17] 8.38807e-05
7 wbs_dat_o[16] wbs_dat_o[17] 0.00695603
8 *646:wbs_adr_i[18] *616:5 0
9 *646:wbs_dat_i[17] *616:5 0
10 *646:wbs_dat_i[18] *616:5 0
11 *579:13 wbs_dat_o[17] 0.000200156
12 *599:13 wbs_dat_o[17] 0.000822982
*RES
1 *646:wbs_dat_o[17] *616:5 83.6925 
2 *616:5 wbs_dat_o[17] 16.2296 
*END

*D_NET *617 0.0303364
*CONN
*P wbs_dat_o[18] O
*I *646:wbs_dat_o[18] O *D CF_SRAM_1024x32_wb_wrapper
*CAP
1 wbs_dat_o[18] 0.00195731
2 *646:wbs_dat_o[18] 0.0047192
3 *617:5 0.00667651
4 wbs_dat_o[18] wbs_dat_o[21] 0.00754313
5 wbs_dat_o[12] wbs_dat_o[18] 5.05905e-05
6 wbs_dat_o[14] wbs_dat_o[18] 0.000714067
7 wbs_dat_o[17] wbs_dat_o[18] 0.00782891
8 *646:wbs_adr_i[19] *617:5 0
9 *646:wbs_dat_i[18] *617:5 0
10 *599:13 wbs_dat_o[18] 0.000846737
*RES
1 *646:wbs_dat_o[18] *617:5 84.2025 
2 *617:5 wbs_dat_o[18] 17.4047 
*END

*D_NET *618 0.0270754
*CONN
*P wbs_dat_o[19] O
*I *646:wbs_dat_o[19] O *D CF_SRAM_1024x32_wb_wrapper
*CAP
1 wbs_dat_o[19] 0.00340382
2 *646:wbs_dat_o[19] 0.00459906
3 *618:5 0.00800288
4 wbs_dat_o[15] wbs_dat_o[19] 0.00422018
5 wbs_dat_o[16] wbs_dat_o[19] 0.000897266
6 wbs_dat_o[17] wbs_dat_o[19] 0.000276698
7 *646:wbs_adr_i[19] *618:5 0
8 *646:wbs_adr_i[20] *618:5 0
9 *646:wbs_adr_i[29] wbs_dat_o[19] 0.000888225
10 *646:wbs_dat_i[19] *618:5 0
11 *547:13 *618:5 0
12 *553:13 wbs_dat_o[19] 0.00192894
13 *561:13 wbs_dat_o[19] 0
14 *580:13 wbs_dat_o[19] 0.000696153
15 *599:13 wbs_dat_o[19] 0.00216217
*RES
1 *646:wbs_dat_o[19] *618:5 82.1625 
2 *618:5 wbs_dat_o[19] 20.7848 
*END

*D_NET *619 0.0246924
*CONN
*P wbs_dat_o[1] O
*I *646:wbs_dat_o[1] O *D CF_SRAM_1024x32_wb_wrapper
*CAP
1 wbs_dat_o[1] 0.00138265
2 *646:wbs_dat_o[1] 0.00457272
3 *619:5 0.00595537
4 wbs_dat_o[1] *640:19 0.00221584
5 wbs_dat_o[1] *641:9 0
6 wbs_dat_o[1] *642:25 0.00223899
7 wbs_dat_o[1] *645:21 0.00238259
8 *619:5 wbs_dat_o[5] 0
9 *619:5 *646:wbs_sel_i[1] 0
10 *619:5 *635:13 0
11 wbs_dat_o[0] wbs_dat_o[1] 0.00133603
12 *646:wbs_adr_i[2] *619:5 0
13 *646:wbs_dat_i[1] *619:5 0
14 *565:19 wbs_dat_o[1] 0.000115146
15 *568:17 wbs_dat_o[1] 0.00122764
16 *587:33 wbs_dat_o[1] 0.00259582
17 *598:23 wbs_dat_o[1] 0.000669635
*RES
1 *646:wbs_dat_o[1] *619:5 82.8 
2 *619:5 wbs_dat_o[1] 40.2825 
*END

*D_NET *620 0.0353396
*CONN
*P wbs_dat_o[20] O
*I *646:wbs_dat_o[20] O *D CF_SRAM_1024x32_wb_wrapper
*CAP
1 wbs_dat_o[20] 0.00291242
2 *646:wbs_dat_o[20] 0.00430936
3 *620:5 0.00722178
4 *646:wbs_adr_i[21] *620:5 0
5 *646:wbs_dat_i[20] *620:5 0
6 *646:wbs_dat_i[21] *620:5 0
7 *547:13 *620:5 0
8 *547:15 *620:5 0
9 *553:13 wbs_dat_o[20] 0.000154001
10 *555:13 wbs_dat_o[20] 0.0101517
11 *556:9 wbs_dat_o[20] 0
12 *557:13 wbs_dat_o[20] 0.0105903
13 *595:13 wbs_dat_o[20] 0
*RES
1 *646:wbs_dat_o[20] *620:5 77.0625 
2 *620:5 wbs_dat_o[20] 27.4528 
*END

*D_NET *621 0.0380916
*CONN
*P wbs_dat_o[21] O
*I *646:wbs_dat_o[21] O *D CF_SRAM_1024x32_wb_wrapper
*CAP
1 wbs_dat_o[21] 0.00325704
2 *646:wbs_dat_o[21] 0.00495825
3 *621:5 0.00821529
4 wbs_dat_o[21] wbs_dat_o[24] 0.0103065
5 wbs_dat_o[21] *623:13 0.00103923
6 wbs_dat_o[14] wbs_dat_o[21] 0.00089172
7 wbs_dat_o[18] wbs_dat_o[21] 0.00754313
8 *646:wbs_adr_i[22] *621:5 0
9 *646:wbs_dat_i[21] *621:5 0
10 *599:13 wbs_dat_o[21] 0.00188038
*RES
1 *646:wbs_dat_o[21] *621:5 84.7125 
2 *621:5 wbs_dat_o[21] 20.6866 
*END

*D_NET *622 0.0346307
*CONN
*P wbs_dat_o[22] O
*I *646:wbs_dat_o[22] O *D CF_SRAM_1024x32_wb_wrapper
*CAP
1 wbs_dat_o[22] 0.0155088
2 *646:wbs_dat_o[22] 0.0155088
3 wbs_dat_o[22] wbs_dat_o[24] 0.000192997
4 *646:wbs_adr_i[22] wbs_dat_o[22] 0.000279836
5 *646:wbs_adr_i[29] wbs_dat_o[22] 0.00254509
6 *646:wbs_dat_i[22] wbs_dat_o[22] 0.00052301
7 *599:13 wbs_dat_o[22] 7.21295e-05
*RES
1 *646:wbs_dat_o[22] wbs_dat_o[22] 21.1684 
*END

*D_NET *623 0.0334544
*CONN
*P wbs_dat_o[23] O
*I *646:wbs_dat_o[23] O *D CF_SRAM_1024x32_wb_wrapper
*CAP
1 wbs_dat_o[23] 0.000300094
2 *646:wbs_dat_o[23] 0.00138611
3 *623:13 0.00510606
4 *623:11 0.00480597
5 *623:9 0.00343973
6 *623:7 0.00482584
7 *623:13 wbs_dat_o[24] 0.000255063
8 *623:13 *625:9 0.0122963
9 wbs_dat_o[21] *623:13 0.00103923
10 *646:wbs_adr_i[24] *623:7 0
11 *646:wbs_adr_i[24] *623:9 0
12 *646:wbs_dat_i[23] *623:7 0
13 *646:wbs_dat_i[23] *623:9 0
14 *581:13 *623:9 0
*RES
1 *646:wbs_dat_o[23] *623:7 24.8475 
2 *623:7 *623:9 60.2925 
3 *623:9 *623:11 2 
4 *623:11 *623:13 121.89 
5 *623:13 wbs_dat_o[23] 4.175 
*END

*D_NET *624 0.0495113
*CONN
*P wbs_dat_o[24] O
*I *646:wbs_dat_o[24] O *D CF_SRAM_1024x32_wb_wrapper
*CAP
1 wbs_dat_o[24] 0.00546604
2 *646:wbs_dat_o[24] 0.00485599
3 *624:5 0.010322
4 wbs_dat_o[24] wbs_dat_o[27] 0.0131231
5 wbs_dat_o[24] *625:9 0.00213694
6 wbs_dat_o[24] *626:9 0.00150247
7 wbs_dat_o[21] wbs_dat_o[24] 0.0103065
8 wbs_dat_o[22] wbs_dat_o[24] 0.000192997
9 *646:wbs_adr_i[24] *624:5 0
10 *646:wbs_adr_i[25] *624:5 0
11 *646:wbs_dat_i[24] *624:5 0
12 *646:wbs_dat_i[25] *624:5 0
13 *549:13 *624:5 0
14 *599:13 wbs_dat_o[24] 0.00135009
15 *623:13 wbs_dat_o[24] 0.000255063
*RES
1 *646:wbs_dat_o[24] *624:5 85.2225 
2 *624:5 wbs_dat_o[24] 24.2086 
*END

*D_NET *625 0.0449377
*CONN
*P wbs_dat_o[25] O
*I *646:wbs_dat_o[25] O *D CF_SRAM_1024x32_wb_wrapper
*CAP
1 wbs_dat_o[25] 0.000201498
2 *646:wbs_dat_o[25] 0.00484169
3 *625:9 0.0030033
4 *625:7 0.0028018
5 *625:5 0.00484169
6 *625:9 wbs_dat_o[27] 0.000125407
7 *625:9 *626:9 0.0146891
8 wbs_dat_o[24] *625:9 0.00213694
9 *646:wbs_adr_i[26] *625:5 0
10 *646:wbs_dat_i[25] *625:5 0
11 *549:13 *625:5 0
12 *582:13 *625:5 0
13 *623:13 *625:9 0.0122963
*RES
1 *646:wbs_dat_o[25] *625:5 84.84 
2 *625:5 *625:7 2 
3 *625:7 *625:9 138.795 
4 *625:9 wbs_dat_o[25] 3.575 
*END

*D_NET *626 0.0470296
*CONN
*P wbs_dat_o[26] O
*I *646:wbs_dat_o[26] O *D CF_SRAM_1024x32_wb_wrapper
*CAP
1 wbs_dat_o[26] 0.00021215
2 *646:wbs_dat_o[26] 0.00483044
3 *626:9 0.00286469
4 *626:7 0.00265254
5 *626:5 0.00483044
6 *626:9 wbs_dat_o[27] 0.000255063
7 *626:9 *628:13 0.0150893
8 wbs_dat_o[15] *626:5 0.000103377
9 wbs_dat_o[24] *626:9 0.00150247
10 *646:wbs_adr_i[26] *626:5 0
11 *646:wbs_adr_i[27] *626:5 0
12 *646:wbs_dat_i[26] *626:5 0
13 *646:wbs_dat_i[27] *626:5 0
14 *625:9 *626:9 0.0146891
*RES
1 *646:wbs_dat_o[26] *626:5 85.095 
2 *626:5 *626:7 2 
3 *626:7 *626:9 146.73 
4 *626:9 wbs_dat_o[26] 3.665 
*END

*D_NET *627 0.05438
*CONN
*P wbs_dat_o[27] O
*I *646:wbs_dat_o[27] O *D CF_SRAM_1024x32_wb_wrapper
*CAP
1 wbs_dat_o[27] 0.00806149
2 *646:wbs_dat_o[27] 0.00471525
3 *627:5 0.0127767
4 wbs_dat_o[27] *628:13 0.00373514
5 wbs_dat_o[27] *629:13 0.000113501
6 wbs_dat_o[27] *631:9 0.00304047
7 wbs_dat_o[27] *632:13 0.00359551
8 wbs_dat_o[24] wbs_dat_o[27] 0.0131231
9 *646:wbs_adr_i[16] *627:5 0.000484239
10 *646:wbs_adr_i[28] *627:5 0
11 *646:wbs_dat_i[27] *627:5 0
12 *550:9 *627:5 0
13 *550:11 *627:5 0
14 *599:13 wbs_dat_o[27] 0.00105851
15 *600:11 wbs_dat_o[27] 0.00329561
16 *625:9 wbs_dat_o[27] 0.000125407
17 *626:9 wbs_dat_o[27] 0.000255063
*RES
1 *646:wbs_dat_o[27] *627:5 85.7325 
2 *627:5 wbs_dat_o[27] 28.6738 
*END

*D_NET *628 0.054087
*CONN
*P wbs_dat_o[28] O
*I *646:wbs_dat_o[28] O *D CF_SRAM_1024x32_wb_wrapper
*CAP
1 wbs_dat_o[28] 0.000144463
2 *646:wbs_dat_o[28] 0.00271115
3 *628:13 0.00318888
4 *628:11 0.00414058
5 *628:5 0.00380732
6 *628:13 *629:13 0.000183623
7 *628:13 *631:9 0.0168806
8 wbs_dat_o[27] *628:13 0.00373514
9 *646:wbs_dat_i[28] *628:5 0
10 *646:wbs_dat_i[29] *628:5 0
11 *550:9 *628:11 0
12 *550:11 *628:11 0
13 *583:9 *628:11 1.31282e-05
14 *583:11 *628:5 0.00301731
15 *583:11 *628:11 0.00117549
16 *626:9 *628:13 0.0150893
*RES
1 *646:wbs_dat_o[28] *628:5 60.6225 
2 *628:5 *628:11 27.2825 
3 *628:11 *628:13 163.635 
4 *628:13 wbs_dat_o[28] 3.32 
*END

*D_NET *629 0.0415853
*CONN
*P wbs_dat_o[29] O
*I *646:wbs_dat_o[29] O *D CF_SRAM_1024x32_wb_wrapper
*CAP
1 wbs_dat_o[29] 0.000155651
2 *646:wbs_dat_o[29] 0.00139419
3 *629:13 0.00631735
4 *629:11 0.0061617
5 *629:9 0.00359971
6 *629:7 0.0049939
7 *629:13 *631:9 0.000175789
8 *629:13 *632:13 0.0178326
9 wbs_dat_o[27] *629:13 0.000113501
10 *646:wbs_adr_i[29] *629:7 0.000360334
11 *646:wbs_adr_i[29] *629:9 0.000208883
12 *646:wbs_adr_i[30] *629:7 0
13 *646:wbs_adr_i[30] *629:9 0
14 *646:wbs_dat_i[29] *629:7 0
15 *646:wbs_dat_i[29] *629:9 0
16 *551:13 *629:9 0
17 *600:11 *629:13 8.80056e-05
18 *628:13 *629:13 0.000183623
*RES
1 *646:wbs_dat_o[29] *629:7 24.8475 
2 *629:7 *629:9 62.0775 
3 *629:9 *629:11 2 
4 *629:11 *629:13 171.225 
5 *629:13 wbs_dat_o[29] 3.32 
*END

*D_NET *630 0.0215633
*CONN
*P wbs_dat_o[2] O
*I *646:wbs_dat_o[2] O *D CF_SRAM_1024x32_wb_wrapper
*CAP
1 wbs_dat_o[2] 0.00185418
2 *646:wbs_dat_o[2] 0.00450234
3 *630:5 0.00635651
4 wbs_dat_o[2] *640:19 4.0891e-05
5 wbs_dat_o[2] *642:25 0.000341577
6 wbs_dat_o[2] *645:21 0.000455796
7 *630:5 *646:wbs_sel_i[2] 0
8 *646:wbs_dat_i[2] *630:5 0
9 *540:13 wbs_dat_o[2] 0.000628427
10 *575:21 wbs_dat_o[2] 0.000238079
11 *576:19 wbs_dat_o[2] 0.00156973
12 *587:33 wbs_dat_o[2] 0.000461918
13 *598:23 wbs_dat_o[2] 0.00189763
14 *601:21 wbs_dat_o[2] 0.00320828
15 *602:13 wbs_dat_o[2] 7.96104e-06
*RES
1 *646:wbs_dat_o[2] *630:5 81.78 
2 *630:5 wbs_dat_o[2] 36.3105 
*END

*D_NET *631 0.0566838
*CONN
*P wbs_dat_o[30] O
*I *646:wbs_dat_o[30] O *D CF_SRAM_1024x32_wb_wrapper
*CAP
1 wbs_dat_o[30] 0.000175883
2 *646:wbs_dat_o[30] 0.0038906
3 *631:9 0.00322899
4 *631:7 0.00305311
5 *631:5 0.0038906
6 wbs_dat_o[27] *631:9 0.00304047
7 *646:wbs_adr_i[31] *631:5 0
8 *646:wbs_dat_i[30] *631:5 0
9 *646:wbs_dat_i[31] *631:5 0
10 *551:13 *631:5 0
11 *584:13 *631:5 0
12 *599:15 *631:5 0.00295642
13 *600:11 *631:9 0.0193914
14 *628:13 *631:9 0.0168806
15 *629:13 *631:9 0.000175789
*RES
1 *646:wbs_dat_o[30] *631:5 85.605 
2 *631:5 *631:7 2 
3 *631:7 *631:9 179.16 
4 *631:9 wbs_dat_o[30] 3.665 
*END

*D_NET *632 0.058499
*CONN
*P wbs_dat_o[31] O
*I *646:wbs_dat_o[31] O *D CF_SRAM_1024x32_wb_wrapper
*CAP
1 wbs_dat_o[31] 7.69673e-05
2 *646:wbs_dat_o[31] 7.20231e-05
3 *632:13 0.00329623
4 *632:11 0.00321926
5 *632:9 0.00505084
6 *632:7 0.00512287
7 wbs_dat_o[27] *632:13 0.00359551
8 *646:wbs_dat_i[31] *632:7 0
9 *646:wbs_dat_i[31] *632:9 0
10 *600:11 *632:13 0.0202327
11 *600:15 *632:9 0
12 *629:13 *632:13 0.0178326
*RES
1 *646:wbs_dat_o[31] *632:7 1.35 
2 *632:7 *632:9 85.1475 
3 *632:9 *632:11 2 
4 *632:11 *632:13 187.785 
5 *632:13 wbs_dat_o[31] 3.32 
*END

*D_NET *633 0.0229325
*CONN
*P wbs_dat_o[3] O
*I *646:wbs_dat_o[3] O *D CF_SRAM_1024x32_wb_wrapper
*CAP
1 wbs_dat_o[3] 0.00919131
2 *646:wbs_dat_o[3] 0.00919131
3 wbs_dat_o[3] *635:11 0
4 wbs_dat_o[3] *642:25 0.000123125
5 *646:wbs_adr_i[3] wbs_dat_o[3] 0.00179592
6 *646:wbs_dat_i[3] wbs_dat_o[3] 0.0015552
7 *646:wbs_dat_i[6] wbs_dat_o[3] 0.000177716
8 *565:19 wbs_dat_o[3] 7.40972e-05
9 *601:21 wbs_dat_o[3] 0
10 *604:7 wbs_dat_o[3] 0.000823869
*RES
1 *646:wbs_dat_o[3] wbs_dat_o[3] 19.2489 
*END

*D_NET *634 0.0181031
*CONN
*P wbs_dat_o[4] O
*I *646:wbs_dat_o[4] O *D CF_SRAM_1024x32_wb_wrapper
*CAP
1 wbs_dat_o[4] 0.000649304
2 *646:wbs_dat_o[4] 0.00137857
3 *634:9 0.00373751
4 *634:7 0.00446677
5 wbs_dat_o[4] *642:25 8.7152e-06
6 *646:wbs_adr_i[4] *634:9 0
7 *646:wbs_adr_i[5] *634:7 0
8 *646:wbs_adr_i[5] *634:9 0
9 *646:wbs_dat_i[4] *634:7 0
10 *646:wbs_dat_i[4] *634:9 0
11 *568:17 wbs_dat_o[4] 0.000608019
12 *569:13 wbs_dat_o[4] 0.00319447
13 *570:13 wbs_dat_o[4] 0.00291211
14 *571:11 wbs_dat_o[4] 0.00021156
15 *572:13 *634:9 0.000936034
16 *602:13 wbs_dat_o[4] 0
*RES
1 *646:wbs_dat_o[4] *634:7 24.8475 
2 *634:7 *634:9 59.91 
3 *634:9 wbs_dat_o[4] 9.05123 
*END

*D_NET *635 0.0160556
*CONN
*P wbs_dat_o[5] O
*I *646:wbs_dat_o[5] O *D CF_SRAM_1024x32_wb_wrapper
*CAP
1 wbs_dat_o[5] 0.00113632
2 *646:wbs_dat_o[5] 0.00164425
3 *635:13 0.00309508
4 *635:11 0.00360301
5 *635:11 *636:15 0.000513061
6 wbs_dat_o[3] *635:11 0
7 *646:wbs_adr_i[2] wbs_dat_o[5] 0.00084946
8 *646:wbs_adr_i[2] *635:13 0.00509016
9 *646:wbs_adr_i[6] *635:11 0
10 *646:wbs_dat_i[5] *635:11 0
11 *646:wbs_dat_i[7] *635:11 9.75512e-05
12 *605:11 *635:11 2.67006e-05
13 *619:5 wbs_dat_o[5] 0
14 *619:5 *635:13 0
*RES
1 *646:wbs_dat_o[5] *635:11 8.5061 
2 *635:11 *635:13 57.105 
3 *635:13 wbs_dat_o[5] 26.2425 
*END

*D_NET *636 0.0158718
*CONN
*P wbs_dat_o[6] O
*I *646:wbs_dat_o[6] O *D CF_SRAM_1024x32_wb_wrapper
*CAP
1 wbs_dat_o[6] 0.00132719
2 *646:wbs_dat_o[6] 0.00136345
3 *636:19 0.00227576
4 *636:15 0.00231202
5 wbs_dat_o[6] *646:wbs_sel_i[3] 0.00315692
6 *636:15 *646:wbs_sel_i[3] 0.00082294
7 *636:19 *646:wbs_sel_i[3] 0
8 *646:wbs_adr_i[4] wbs_dat_o[6] 0
9 *646:wbs_adr_i[4] *636:15 0.00111678
10 *646:wbs_adr_i[4] *636:19 0.00231466
11 *646:wbs_adr_i[7] *636:15 0
12 *646:wbs_dat_i[6] *636:15 0
13 *646:wbs_dat_i[7] *636:15 0.000669031
14 *635:11 *636:15 0.000513061
*RES
1 *646:wbs_dat_o[6] *636:15 28.4377 
2 *636:15 *636:19 27.12 
3 *636:19 wbs_dat_o[6] 36.8175 
*END

*D_NET *637 0.0103697
*CONN
*P wbs_dat_o[7] O
*I *646:wbs_dat_o[7] O *D CF_SRAM_1024x32_wb_wrapper
*CAP
1 wbs_dat_o[7] 0.00139552
2 *646:wbs_dat_o[7] 0.00104219
3 *637:15 0.00410014
4 *637:11 0.00374681
5 *646:wbs_adr_i[6] wbs_dat_o[7] 0
6 *646:wbs_adr_i[6] *637:15 0
7 *646:wbs_adr_i[7] *637:11 0
8 *646:wbs_adr_i[7] *637:15 0
9 *646:wbs_adr_i[8] *637:11 0
10 *646:wbs_dat_i[7] *637:11 0
11 *573:17 *637:11 8.50075e-05
*RES
1 *646:wbs_dat_o[7] *637:11 14.3793 
2 *637:11 *637:15 49.23 
3 *637:15 wbs_dat_o[7] 25.4475 
*END

*D_NET *638 0.00959508
*CONN
*P wbs_dat_o[8] O
*I *646:wbs_dat_o[8] O *D CF_SRAM_1024x32_wb_wrapper
*CAP
1 wbs_dat_o[8] 9.79068e-05
2 *646:wbs_dat_o[8] 0.00469963
3 *638:5 0.00479754
4 *646:wbs_adr_i[9] *638:5 0
5 *646:wbs_dat_i[8] *638:5 0
*RES
1 *646:wbs_dat_o[8] *638:5 85.2225 
2 *638:5 wbs_dat_o[8] 1.7775 
*END

*D_NET *639 0.0115964
*CONN
*P wbs_dat_o[9] O
*I *646:wbs_dat_o[9] O *D CF_SRAM_1024x32_wb_wrapper
*CAP
1 wbs_dat_o[9] 0.00121728
2 *646:wbs_dat_o[9] 0.003947
3 *639:5 0.00516427
4 *646:wbs_adr_i[10] *639:5 0
5 *646:wbs_adr_i[12] wbs_dat_o[9] 0
6 *646:wbs_dat_i[11] wbs_dat_o[9] 0.00118269
7 *646:wbs_dat_i[9] *639:5 0
8 *607:13 wbs_dat_o[9] 8.51557e-05
9 *610:9 wbs_dat_o[9] 0
*RES
1 *646:wbs_dat_o[9] *639:5 71.9625 
2 *639:5 wbs_dat_o[9] 17.0054 
*END

*D_NET *640 0.0255873
*CONN
*P wbs_sel_i[0] I
*I *646:wbs_sel_i[0] I *D CF_SRAM_1024x32_wb_wrapper
*CAP
1 wbs_sel_i[0] 0.00220725
2 *646:wbs_sel_i[0] 0.00455983
3 *640:19 0.00676708
4 *640:19 *642:25 0.000862687
5 *640:19 *645:21 0.0015257
6 wbs_dat_o[0] *640:19 0.00441192
7 wbs_dat_o[1] *640:19 0.00221584
8 wbs_dat_o[2] *640:19 4.0891e-05
9 *646:wbs_adr_i[1] *646:wbs_sel_i[0] 0
10 *646:wbs_dat_i[1] *646:wbs_sel_i[0] 0
11 *565:19 *640:19 0.00210302
12 *568:17 *640:19 7.33223e-05
13 *587:33 *640:19 0.000333357
14 *601:21 *646:wbs_sel_i[0] 1.62899e-05
15 *601:21 *640:19 0.000470165
16 *608:5 *646:wbs_sel_i[0] 0
*RES
1 wbs_sel_i[0] *640:19 46.6419 
2 *640:19 *646:wbs_sel_i[0] 82.545 
*END

*D_NET *641 0.0204732
*CONN
*P wbs_sel_i[1] I
*I *646:wbs_sel_i[1] I *D CF_SRAM_1024x32_wb_wrapper
*CAP
1 wbs_sel_i[1] 0.00151371
2 *646:wbs_sel_i[1] 0.00284702
3 *641:11 0.0061384
4 *641:9 0.00480509
5 *646:wbs_sel_i[1] *646:wbs_stb_i 0.00516896
6 wbs_dat_o[1] *641:9 0
7 *646:wbs_adr_i[2] *646:wbs_sel_i[1] 0
8 *619:5 *646:wbs_sel_i[1] 0
*RES
1 wbs_sel_i[1] *641:9 26.7525 
2 *641:9 *641:11 59.655 
3 *641:11 *646:wbs_sel_i[1] 12.3072 
*END

*D_NET *642 0.0207458
*CONN
*P wbs_sel_i[2] I
*I *646:wbs_sel_i[2] I *D CF_SRAM_1024x32_wb_wrapper
*CAP
1 wbs_sel_i[2] 0.00154681
2 *646:wbs_sel_i[2] 0.00453529
3 *642:25 0.0060821
4 *642:25 *643:11 0.000246655
5 wbs_dat_o[0] *642:25 0.000419917
6 wbs_dat_o[1] *642:25 0.00223899
7 wbs_dat_o[2] *642:25 0.000341577
8 wbs_dat_o[3] *642:25 0.000123125
9 wbs_dat_o[4] *642:25 8.7152e-06
10 *646:wbs_adr_i[3] *646:wbs_sel_i[2] 0
11 *646:wbs_dat_i[2] *646:wbs_sel_i[2] 0
12 *565:19 *642:25 0.000683989
13 *568:17 *642:25 0.00137693
14 *569:13 *642:25 0.000789019
15 *598:23 *642:25 0.00141186
16 *601:21 *642:25 7.81829e-05
17 *602:13 *642:25 0
18 *630:5 *646:wbs_sel_i[2] 0
19 *640:19 *642:25 0.000862687
*RES
1 wbs_sel_i[2] *642:25 34.0409 
2 *642:25 *646:wbs_sel_i[2] 82.29 
*END

*D_NET *643 0.0182083
*CONN
*P wbs_sel_i[3] I
*I *646:wbs_sel_i[3] I *D CF_SRAM_1024x32_wb_wrapper
*CAP
1 wbs_sel_i[3] 0.00155586
2 *646:wbs_sel_i[3] 0.00367603
3 *643:11 0.0052319
4 wbs_dat_o[6] *646:wbs_sel_i[3] 0.00315692
5 *646:wbs_adr_i[4] *646:wbs_sel_i[3] 0
6 *646:wbs_dat_i[3] *646:wbs_sel_i[3] 0
7 *646:wbs_dat_i[6] *646:wbs_sel_i[3] 0
8 *565:19 *643:11 0.000622396
9 *569:13 *643:11 0.00132849
10 *571:11 *643:11 0.000782163
11 *603:19 *643:11 0.000784941
12 *604:7 *646:wbs_sel_i[3] 0
13 *636:15 *646:wbs_sel_i[3] 0.00082294
14 *636:19 *646:wbs_sel_i[3] 0
15 *642:25 *643:11 0.000246655
*RES
1 wbs_sel_i[3] *643:11 8.82157 
2 *643:11 *646:wbs_sel_i[3] 85.7325 
*END

*D_NET *644 0.0233767
*CONN
*P wbs_stb_i I
*I *646:wbs_stb_i I *D CF_SRAM_1024x32_wb_wrapper
*CAP
1 wbs_stb_i 0.00148465
2 *646:wbs_stb_i 0.00431307
3 *644:11 0.00761924
4 *644:9 0.00479082
5 *646:wbs_stb_i *646:wbs_we_i 0
6 *646:wbs_cyc_i *646:wbs_stb_i 0
7 *646:wbs_sel_i[1] *646:wbs_stb_i 0.00516896
*RES
1 wbs_stb_i *644:9 26.7525 
2 *644:9 *644:11 60.165 
3 *644:11 *646:wbs_stb_i 15.9341 
*END

*D_NET *645 0.028364
*CONN
*P wbs_we_i I
*I *646:wbs_we_i I *D CF_SRAM_1024x32_wb_wrapper
*CAP
1 wbs_we_i 0.00228707
2 *646:wbs_we_i 0.00462634
3 *645:21 0.0069134
4 wbs_dat_o[0] *645:21 0.000861091
5 wbs_dat_o[1] *645:21 0.00238259
6 wbs_dat_o[2] *645:21 0.000455796
7 *646:wbs_adr_i[0] *646:wbs_we_i 0
8 *646:wbs_cyc_i *646:wbs_we_i 0
9 *646:wbs_dat_i[0] *646:wbs_we_i 0
10 *646:wbs_stb_i *646:wbs_we_i 0
11 *543:9 *645:21 0
12 *575:17 *645:21 0.00507836
13 *575:21 *645:21 0.0028739
14 *576:19 *645:21 0.000144281
15 *598:23 *645:21 0.000821527
16 *601:21 *645:21 0.000384307
17 *602:13 *646:wbs_we_i 9.68083e-06
18 *640:19 *645:21 0.0015257
*RES
1 wbs_we_i *645:21 47.4063 
2 *645:21 *646:wbs_we_i 82.035 
*END
