*SPEF "ieee 1481-1999"
*DESIGN "user_project_wrapper"
*DATE "05:35:47 Saturday September 05, 2026"
*VENDOR "The OpenROAD Project"
*PROGRAM "OpenROAD"
*VERSION "edf00dff99f6c40d67a30c0e22a8191c5d2ed9d6"
*DESIGN_FLOW "NAME_SCOPE LOCAL" "PIN_CAP NONE"
*DIVIDER /
*DELIMITER :
*BUS_DELIMITER []
*T_UNIT 1 NS
*C_UNIT 1 PF
*R_UNIT 1 OHM
*L_UNIT 1 HENRY

*NAME_MAP
*1 analog_io[0]
*2 analog_io[10]
*3 analog_io[11]
*4 analog_io[12]
*5 analog_io[13]
*6 analog_io[14]
*7 analog_io[15]
*8 analog_io[16]
*9 analog_io[17]
*10 analog_io[18]
*11 analog_io[19]
*12 analog_io[1]
*13 analog_io[20]
*14 analog_io[21]
*15 analog_io[22]
*16 analog_io[23]
*17 analog_io[24]
*18 analog_io[25]
*19 analog_io[26]
*20 analog_io[27]
*21 analog_io[28]
*22 analog_io[2]
*23 analog_io[3]
*24 analog_io[4]
*25 analog_io[5]
*26 analog_io[6]
*27 analog_io[7]
*28 analog_io[8]
*29 analog_io[9]
*30 io_in[0]
*31 io_in[10]
*32 io_in[11]
*33 io_in[12]
*34 io_in[13]
*35 io_in[14]
*36 io_in[15]
*37 io_in[16]
*38 io_in[17]
*39 io_in[18]
*40 io_in[19]
*41 io_in[1]
*42 io_in[20]
*43 io_in[21]
*44 io_in[22]
*45 io_in[23]
*46 io_in[24]
*47 io_in[25]
*48 io_in[26]
*49 io_in[27]
*50 io_in[28]
*51 io_in[29]
*52 io_in[2]
*53 io_in[30]
*54 io_in[31]
*55 io_in[32]
*56 io_in[33]
*57 io_in[34]
*58 io_in[35]
*59 io_in[36]
*60 io_in[37]
*61 io_in[3]
*62 io_in[4]
*63 io_in[5]
*64 io_in[6]
*65 io_in[7]
*66 io_in[8]
*67 io_in[9]
*68 io_oeb[0]
*69 io_oeb[10]
*70 io_oeb[11]
*71 io_oeb[12]
*72 io_oeb[13]
*73 io_oeb[14]
*74 io_oeb[15]
*75 io_oeb[16]
*76 io_oeb[17]
*77 io_oeb[18]
*78 io_oeb[19]
*79 io_oeb[1]
*80 io_oeb[20]
*81 io_oeb[21]
*82 io_oeb[22]
*83 io_oeb[23]
*84 io_oeb[24]
*85 io_oeb[25]
*86 io_oeb[26]
*87 io_oeb[27]
*88 io_oeb[28]
*89 io_oeb[29]
*90 io_oeb[2]
*91 io_oeb[30]
*92 io_oeb[31]
*93 io_oeb[32]
*94 io_oeb[33]
*95 io_oeb[34]
*96 io_oeb[35]
*97 io_oeb[36]
*98 io_oeb[37]
*99 io_oeb[3]
*100 io_oeb[4]
*101 io_oeb[5]
*102 io_oeb[6]
*103 io_oeb[7]
*104 io_oeb[8]
*105 io_oeb[9]
*106 io_out[0]
*107 io_out[10]
*108 io_out[11]
*109 io_out[12]
*110 io_out[13]
*111 io_out[14]
*112 io_out[15]
*113 io_out[16]
*114 io_out[17]
*115 io_out[18]
*116 io_out[19]
*117 io_out[1]
*118 io_out[20]
*119 io_out[21]
*120 io_out[22]
*121 io_out[23]
*122 io_out[24]
*123 io_out[25]
*124 io_out[26]
*125 io_out[27]
*126 io_out[28]
*127 io_out[29]
*128 io_out[2]
*129 io_out[30]
*130 io_out[31]
*131 io_out[32]
*132 io_out[33]
*133 io_out[34]
*134 io_out[35]
*135 io_out[36]
*136 io_out[37]
*137 io_out[3]
*138 io_out[4]
*139 io_out[5]
*140 io_out[6]
*141 io_out[7]
*142 io_out[8]
*143 io_out[9]
*144 la_data_in[0]
*145 la_data_in[100]
*146 la_data_in[101]
*147 la_data_in[102]
*148 la_data_in[103]
*149 la_data_in[104]
*150 la_data_in[105]
*151 la_data_in[106]
*152 la_data_in[107]
*153 la_data_in[108]
*154 la_data_in[109]
*155 la_data_in[10]
*156 la_data_in[110]
*157 la_data_in[111]
*158 la_data_in[112]
*159 la_data_in[113]
*160 la_data_in[114]
*161 la_data_in[115]
*162 la_data_in[116]
*163 la_data_in[117]
*164 la_data_in[118]
*165 la_data_in[119]
*166 la_data_in[11]
*167 la_data_in[120]
*168 la_data_in[121]
*169 la_data_in[122]
*170 la_data_in[123]
*171 la_data_in[124]
*172 la_data_in[125]
*173 la_data_in[126]
*174 la_data_in[127]
*175 la_data_in[12]
*176 la_data_in[13]
*177 la_data_in[14]
*178 la_data_in[15]
*179 la_data_in[16]
*180 la_data_in[17]
*181 la_data_in[18]
*182 la_data_in[19]
*183 la_data_in[1]
*184 la_data_in[20]
*185 la_data_in[21]
*186 la_data_in[22]
*187 la_data_in[23]
*188 la_data_in[24]
*189 la_data_in[25]
*190 la_data_in[26]
*191 la_data_in[27]
*192 la_data_in[28]
*193 la_data_in[29]
*194 la_data_in[2]
*195 la_data_in[30]
*196 la_data_in[31]
*197 la_data_in[32]
*198 la_data_in[33]
*199 la_data_in[34]
*200 la_data_in[35]
*201 la_data_in[36]
*202 la_data_in[37]
*203 la_data_in[38]
*204 la_data_in[39]
*205 la_data_in[3]
*206 la_data_in[40]
*207 la_data_in[41]
*208 la_data_in[42]
*209 la_data_in[43]
*210 la_data_in[44]
*211 la_data_in[45]
*212 la_data_in[46]
*213 la_data_in[47]
*214 la_data_in[48]
*215 la_data_in[49]
*216 la_data_in[4]
*217 la_data_in[50]
*218 la_data_in[51]
*219 la_data_in[52]
*220 la_data_in[53]
*221 la_data_in[54]
*222 la_data_in[55]
*223 la_data_in[56]
*224 la_data_in[57]
*225 la_data_in[58]
*226 la_data_in[59]
*227 la_data_in[5]
*228 la_data_in[60]
*229 la_data_in[61]
*230 la_data_in[62]
*231 la_data_in[63]
*232 la_data_in[64]
*233 la_data_in[65]
*234 la_data_in[66]
*235 la_data_in[67]
*236 la_data_in[68]
*237 la_data_in[69]
*238 la_data_in[6]
*239 la_data_in[70]
*240 la_data_in[71]
*241 la_data_in[72]
*242 la_data_in[73]
*243 la_data_in[74]
*244 la_data_in[75]
*245 la_data_in[76]
*246 la_data_in[77]
*247 la_data_in[78]
*248 la_data_in[79]
*249 la_data_in[7]
*250 la_data_in[80]
*251 la_data_in[81]
*252 la_data_in[82]
*253 la_data_in[83]
*254 la_data_in[84]
*255 la_data_in[85]
*256 la_data_in[86]
*257 la_data_in[87]
*258 la_data_in[88]
*259 la_data_in[89]
*260 la_data_in[8]
*261 la_data_in[90]
*262 la_data_in[91]
*263 la_data_in[92]
*264 la_data_in[93]
*265 la_data_in[94]
*266 la_data_in[95]
*267 la_data_in[96]
*268 la_data_in[97]
*269 la_data_in[98]
*270 la_data_in[99]
*271 la_data_in[9]
*272 la_data_out[0]
*273 la_data_out[100]
*274 la_data_out[101]
*275 la_data_out[102]
*276 la_data_out[103]
*277 la_data_out[104]
*278 la_data_out[105]
*279 la_data_out[106]
*280 la_data_out[107]
*281 la_data_out[108]
*282 la_data_out[109]
*283 la_data_out[10]
*284 la_data_out[110]
*285 la_data_out[111]
*286 la_data_out[112]
*287 la_data_out[113]
*288 la_data_out[114]
*289 la_data_out[115]
*290 la_data_out[116]
*291 la_data_out[117]
*292 la_data_out[118]
*293 la_data_out[119]
*294 la_data_out[11]
*295 la_data_out[120]
*296 la_data_out[121]
*297 la_data_out[122]
*298 la_data_out[123]
*299 la_data_out[124]
*300 la_data_out[125]
*301 la_data_out[126]
*302 la_data_out[127]
*303 la_data_out[12]
*304 la_data_out[13]
*305 la_data_out[14]
*306 la_data_out[15]
*307 la_data_out[16]
*308 la_data_out[17]
*309 la_data_out[18]
*310 la_data_out[19]
*311 la_data_out[1]
*312 la_data_out[20]
*313 la_data_out[21]
*314 la_data_out[22]
*315 la_data_out[23]
*316 la_data_out[24]
*317 la_data_out[25]
*318 la_data_out[26]
*319 la_data_out[27]
*320 la_data_out[28]
*321 la_data_out[29]
*322 la_data_out[2]
*323 la_data_out[30]
*324 la_data_out[31]
*325 la_data_out[32]
*326 la_data_out[33]
*327 la_data_out[34]
*328 la_data_out[35]
*329 la_data_out[36]
*330 la_data_out[37]
*331 la_data_out[38]
*332 la_data_out[39]
*333 la_data_out[3]
*334 la_data_out[40]
*335 la_data_out[41]
*336 la_data_out[42]
*337 la_data_out[43]
*338 la_data_out[44]
*339 la_data_out[45]
*340 la_data_out[46]
*341 la_data_out[47]
*342 la_data_out[48]
*343 la_data_out[49]
*344 la_data_out[4]
*345 la_data_out[50]
*346 la_data_out[51]
*347 la_data_out[52]
*348 la_data_out[53]
*349 la_data_out[54]
*350 la_data_out[55]
*351 la_data_out[56]
*352 la_data_out[57]
*353 la_data_out[58]
*354 la_data_out[59]
*355 la_data_out[5]
*356 la_data_out[60]
*357 la_data_out[61]
*358 la_data_out[62]
*359 la_data_out[63]
*360 la_data_out[64]
*361 la_data_out[65]
*362 la_data_out[66]
*363 la_data_out[67]
*364 la_data_out[68]
*365 la_data_out[69]
*366 la_data_out[6]
*367 la_data_out[70]
*368 la_data_out[71]
*369 la_data_out[72]
*370 la_data_out[73]
*371 la_data_out[74]
*372 la_data_out[75]
*373 la_data_out[76]
*374 la_data_out[77]
*375 la_data_out[78]
*376 la_data_out[79]
*377 la_data_out[7]
*378 la_data_out[80]
*379 la_data_out[81]
*380 la_data_out[82]
*381 la_data_out[83]
*382 la_data_out[84]
*383 la_data_out[85]
*384 la_data_out[86]
*385 la_data_out[87]
*386 la_data_out[88]
*387 la_data_out[89]
*388 la_data_out[8]
*389 la_data_out[90]
*390 la_data_out[91]
*391 la_data_out[92]
*392 la_data_out[93]
*393 la_data_out[94]
*394 la_data_out[95]
*395 la_data_out[96]
*396 la_data_out[97]
*397 la_data_out[98]
*398 la_data_out[99]
*399 la_data_out[9]
*400 la_oenb[0]
*401 la_oenb[100]
*402 la_oenb[101]
*403 la_oenb[102]
*404 la_oenb[103]
*405 la_oenb[104]
*406 la_oenb[105]
*407 la_oenb[106]
*408 la_oenb[107]
*409 la_oenb[108]
*410 la_oenb[109]
*411 la_oenb[10]
*412 la_oenb[110]
*413 la_oenb[111]
*414 la_oenb[112]
*415 la_oenb[113]
*416 la_oenb[114]
*417 la_oenb[115]
*418 la_oenb[116]
*419 la_oenb[117]
*420 la_oenb[118]
*421 la_oenb[119]
*422 la_oenb[11]
*423 la_oenb[120]
*424 la_oenb[121]
*425 la_oenb[122]
*426 la_oenb[123]
*427 la_oenb[124]
*428 la_oenb[125]
*429 la_oenb[126]
*430 la_oenb[127]
*431 la_oenb[12]
*432 la_oenb[13]
*433 la_oenb[14]
*434 la_oenb[15]
*435 la_oenb[16]
*436 la_oenb[17]
*437 la_oenb[18]
*438 la_oenb[19]
*439 la_oenb[1]
*440 la_oenb[20]
*441 la_oenb[21]
*442 la_oenb[22]
*443 la_oenb[23]
*444 la_oenb[24]
*445 la_oenb[25]
*446 la_oenb[26]
*447 la_oenb[27]
*448 la_oenb[28]
*449 la_oenb[29]
*450 la_oenb[2]
*451 la_oenb[30]
*452 la_oenb[31]
*453 la_oenb[32]
*454 la_oenb[33]
*455 la_oenb[34]
*456 la_oenb[35]
*457 la_oenb[36]
*458 la_oenb[37]
*459 la_oenb[38]
*460 la_oenb[39]
*461 la_oenb[3]
*462 la_oenb[40]
*463 la_oenb[41]
*464 la_oenb[42]
*465 la_oenb[43]
*466 la_oenb[44]
*467 la_oenb[45]
*468 la_oenb[46]
*469 la_oenb[47]
*470 la_oenb[48]
*471 la_oenb[49]
*472 la_oenb[4]
*473 la_oenb[50]
*474 la_oenb[51]
*475 la_oenb[52]
*476 la_oenb[53]
*477 la_oenb[54]
*478 la_oenb[55]
*479 la_oenb[56]
*480 la_oenb[57]
*481 la_oenb[58]
*482 la_oenb[59]
*483 la_oenb[5]
*484 la_oenb[60]
*485 la_oenb[61]
*486 la_oenb[62]
*487 la_oenb[63]
*488 la_oenb[64]
*489 la_oenb[65]
*490 la_oenb[66]
*491 la_oenb[67]
*492 la_oenb[68]
*493 la_oenb[69]
*494 la_oenb[6]
*495 la_oenb[70]
*496 la_oenb[71]
*497 la_oenb[72]
*498 la_oenb[73]
*499 la_oenb[74]
*500 la_oenb[75]
*501 la_oenb[76]
*502 la_oenb[77]
*503 la_oenb[78]
*504 la_oenb[79]
*505 la_oenb[7]
*506 la_oenb[80]
*507 la_oenb[81]
*508 la_oenb[82]
*509 la_oenb[83]
*510 la_oenb[84]
*511 la_oenb[85]
*512 la_oenb[86]
*513 la_oenb[87]
*514 la_oenb[88]
*515 la_oenb[89]
*516 la_oenb[8]
*517 la_oenb[90]
*518 la_oenb[91]
*519 la_oenb[92]
*520 la_oenb[93]
*521 la_oenb[94]
*522 la_oenb[95]
*523 la_oenb[96]
*524 la_oenb[97]
*525 la_oenb[98]
*526 la_oenb[99]
*527 la_oenb[9]
*528 user_clock2
*529 user_irq[0]
*530 user_irq[1]
*531 user_irq[2]
*540 wb_clk_i
*541 wb_rst_i
*542 wbs_ack_o
*543 wbs_adr_i[0]
*544 wbs_adr_i[10]
*545 wbs_adr_i[11]
*546 wbs_adr_i[12]
*547 wbs_adr_i[13]
*548 wbs_adr_i[14]
*549 wbs_adr_i[15]
*550 wbs_adr_i[16]
*551 wbs_adr_i[17]
*552 wbs_adr_i[18]
*553 wbs_adr_i[19]
*554 wbs_adr_i[1]
*555 wbs_adr_i[20]
*556 wbs_adr_i[21]
*557 wbs_adr_i[22]
*558 wbs_adr_i[23]
*559 wbs_adr_i[24]
*560 wbs_adr_i[25]
*561 wbs_adr_i[26]
*562 wbs_adr_i[27]
*563 wbs_adr_i[28]
*564 wbs_adr_i[29]
*565 wbs_adr_i[2]
*566 wbs_adr_i[30]
*567 wbs_adr_i[31]
*568 wbs_adr_i[3]
*569 wbs_adr_i[4]
*570 wbs_adr_i[5]
*571 wbs_adr_i[6]
*572 wbs_adr_i[7]
*573 wbs_adr_i[8]
*574 wbs_adr_i[9]
*575 wbs_cyc_i
*576 wbs_dat_i[0]
*577 wbs_dat_i[10]
*578 wbs_dat_i[11]
*579 wbs_dat_i[12]
*580 wbs_dat_i[13]
*581 wbs_dat_i[14]
*582 wbs_dat_i[15]
*583 wbs_dat_i[16]
*584 wbs_dat_i[17]
*585 wbs_dat_i[18]
*586 wbs_dat_i[19]
*587 wbs_dat_i[1]
*588 wbs_dat_i[20]
*589 wbs_dat_i[21]
*590 wbs_dat_i[22]
*591 wbs_dat_i[23]
*592 wbs_dat_i[24]
*593 wbs_dat_i[25]
*594 wbs_dat_i[26]
*595 wbs_dat_i[27]
*596 wbs_dat_i[28]
*597 wbs_dat_i[29]
*598 wbs_dat_i[2]
*599 wbs_dat_i[30]
*600 wbs_dat_i[31]
*601 wbs_dat_i[3]
*602 wbs_dat_i[4]
*603 wbs_dat_i[5]
*604 wbs_dat_i[6]
*605 wbs_dat_i[7]
*606 wbs_dat_i[8]
*607 wbs_dat_i[9]
*608 wbs_dat_o[0]
*609 wbs_dat_o[10]
*610 wbs_dat_o[11]
*611 wbs_dat_o[12]
*612 wbs_dat_o[13]
*613 wbs_dat_o[14]
*614 wbs_dat_o[15]
*615 wbs_dat_o[16]
*616 wbs_dat_o[17]
*617 wbs_dat_o[18]
*618 wbs_dat_o[19]
*619 wbs_dat_o[1]
*620 wbs_dat_o[20]
*621 wbs_dat_o[21]
*622 wbs_dat_o[22]
*623 wbs_dat_o[23]
*624 wbs_dat_o[24]
*625 wbs_dat_o[25]
*626 wbs_dat_o[26]
*627 wbs_dat_o[27]
*628 wbs_dat_o[28]
*629 wbs_dat_o[29]
*630 wbs_dat_o[2]
*631 wbs_dat_o[30]
*632 wbs_dat_o[31]
*633 wbs_dat_o[3]
*634 wbs_dat_o[4]
*635 wbs_dat_o[5]
*636 wbs_dat_o[6]
*637 wbs_dat_o[7]
*638 wbs_dat_o[8]
*639 wbs_dat_o[9]
*640 wbs_sel_i[0]
*641 wbs_sel_i[1]
*642 wbs_sel_i[2]
*643 wbs_sel_i[3]
*644 wbs_stb_i
*645 wbs_we_i
*646 mprj

*PORTS
analog_io[0] I
analog_io[10] I
analog_io[11] I
analog_io[12] I
analog_io[13] I
analog_io[14] I
analog_io[15] I
analog_io[16] I
analog_io[17] I
analog_io[18] I
analog_io[19] I
analog_io[1] I
analog_io[20] I
analog_io[21] I
analog_io[22] I
analog_io[23] I
analog_io[24] I
analog_io[25] I
analog_io[26] I
analog_io[27] I
analog_io[28] I
analog_io[2] I
analog_io[3] I
analog_io[4] I
analog_io[5] I
analog_io[6] I
analog_io[7] I
analog_io[8] I
analog_io[9] I
io_in[0] I
io_in[10] I
io_in[11] I
io_in[12] I
io_in[13] I
io_in[14] I
io_in[15] I
io_in[16] I
io_in[17] I
io_in[18] I
io_in[19] I
io_in[1] I
io_in[20] I
io_in[21] I
io_in[22] I
io_in[23] I
io_in[24] I
io_in[25] I
io_in[26] I
io_in[27] I
io_in[28] I
io_in[29] I
io_in[2] I
io_in[30] I
io_in[31] I
io_in[32] I
io_in[33] I
io_in[34] I
io_in[35] I
io_in[36] I
io_in[37] I
io_in[3] I
io_in[4] I
io_in[5] I
io_in[6] I
io_in[7] I
io_in[8] I
io_in[9] I
io_oeb[0] O
io_oeb[10] O
io_oeb[11] O
io_oeb[12] O
io_oeb[13] O
io_oeb[14] O
io_oeb[15] O
io_oeb[16] O
io_oeb[17] O
io_oeb[18] O
io_oeb[19] O
io_oeb[1] O
io_oeb[20] O
io_oeb[21] O
io_oeb[22] O
io_oeb[23] O
io_oeb[24] O
io_oeb[25] O
io_oeb[26] O
io_oeb[27] O
io_oeb[28] O
io_oeb[29] O
io_oeb[2] O
io_oeb[30] O
io_oeb[31] O
io_oeb[32] O
io_oeb[33] O
io_oeb[34] O
io_oeb[35] O
io_oeb[36] O
io_oeb[37] O
io_oeb[3] O
io_oeb[4] O
io_oeb[5] O
io_oeb[6] O
io_oeb[7] O
io_oeb[8] O
io_oeb[9] O
io_out[0] O
io_out[10] O
io_out[11] O
io_out[12] O
io_out[13] O
io_out[14] O
io_out[15] O
io_out[16] O
io_out[17] O
io_out[18] O
io_out[19] O
io_out[1] O
io_out[20] O
io_out[21] O
io_out[22] O
io_out[23] O
io_out[24] O
io_out[25] O
io_out[26] O
io_out[27] O
io_out[28] O
io_out[29] O
io_out[2] O
io_out[30] O
io_out[31] O
io_out[32] O
io_out[33] O
io_out[34] O
io_out[35] O
io_out[36] O
io_out[37] O
io_out[3] O
io_out[4] O
io_out[5] O
io_out[6] O
io_out[7] O
io_out[8] O
io_out[9] O
la_data_in[0] I
la_data_in[100] I
la_data_in[101] I
la_data_in[102] I
la_data_in[103] I
la_data_in[104] I
la_data_in[105] I
la_data_in[106] I
la_data_in[107] I
la_data_in[108] I
la_data_in[109] I
la_data_in[10] I
la_data_in[110] I
la_data_in[111] I
la_data_in[112] I
la_data_in[113] I
la_data_in[114] I
la_data_in[115] I
la_data_in[116] I
la_data_in[117] I
la_data_in[118] I
la_data_in[119] I
la_data_in[11] I
la_data_in[120] I
la_data_in[121] I
la_data_in[122] I
la_data_in[123] I
la_data_in[124] I
la_data_in[125] I
la_data_in[126] I
la_data_in[127] I
la_data_in[12] I
la_data_in[13] I
la_data_in[14] I
la_data_in[15] I
la_data_in[16] I
la_data_in[17] I
la_data_in[18] I
la_data_in[19] I
la_data_in[1] I
la_data_in[20] I
la_data_in[21] I
la_data_in[22] I
la_data_in[23] I
la_data_in[24] I
la_data_in[25] I
la_data_in[26] I
la_data_in[27] I
la_data_in[28] I
la_data_in[29] I
la_data_in[2] I
la_data_in[30] I
la_data_in[31] I
la_data_in[32] I
la_data_in[33] I
la_data_in[34] I
la_data_in[35] I
la_data_in[36] I
la_data_in[37] I
la_data_in[38] I
la_data_in[39] I
la_data_in[3] I
la_data_in[40] I
la_data_in[41] I
la_data_in[42] I
la_data_in[43] I
la_data_in[44] I
la_data_in[45] I
la_data_in[46] I
la_data_in[47] I
la_data_in[48] I
la_data_in[49] I
la_data_in[4] I
la_data_in[50] I
la_data_in[51] I
la_data_in[52] I
la_data_in[53] I
la_data_in[54] I
la_data_in[55] I
la_data_in[56] I
la_data_in[57] I
la_data_in[58] I
la_data_in[59] I
la_data_in[5] I
la_data_in[60] I
la_data_in[61] I
la_data_in[62] I
la_data_in[63] I
la_data_in[64] I
la_data_in[65] I
la_data_in[66] I
la_data_in[67] I
la_data_in[68] I
la_data_in[69] I
la_data_in[6] I
la_data_in[70] I
la_data_in[71] I
la_data_in[72] I
la_data_in[73] I
la_data_in[74] I
la_data_in[75] I
la_data_in[76] I
la_data_in[77] I
la_data_in[78] I
la_data_in[79] I
la_data_in[7] I
la_data_in[80] I
la_data_in[81] I
la_data_in[82] I
la_data_in[83] I
la_data_in[84] I
la_data_in[85] I
la_data_in[86] I
la_data_in[87] I
la_data_in[88] I
la_data_in[89] I
la_data_in[8] I
la_data_in[90] I
la_data_in[91] I
la_data_in[92] I
la_data_in[93] I
la_data_in[94] I
la_data_in[95] I
la_data_in[96] I
la_data_in[97] I
la_data_in[98] I
la_data_in[99] I
la_data_in[9] I
la_data_out[0] O
la_data_out[100] O
la_data_out[101] O
la_data_out[102] O
la_data_out[103] O
la_data_out[104] O
la_data_out[105] O
la_data_out[106] O
la_data_out[107] O
la_data_out[108] O
la_data_out[109] O
la_data_out[10] O
la_data_out[110] O
la_data_out[111] O
la_data_out[112] O
la_data_out[113] O
la_data_out[114] O
la_data_out[115] O
la_data_out[116] O
la_data_out[117] O
la_data_out[118] O
la_data_out[119] O
la_data_out[11] O
la_data_out[120] O
la_data_out[121] O
la_data_out[122] O
la_data_out[123] O
la_data_out[124] O
la_data_out[125] O
la_data_out[126] O
la_data_out[127] O
la_data_out[12] O
la_data_out[13] O
la_data_out[14] O
la_data_out[15] O
la_data_out[16] O
la_data_out[17] O
la_data_out[18] O
la_data_out[19] O
la_data_out[1] O
la_data_out[20] O
la_data_out[21] O
la_data_out[22] O
la_data_out[23] O
la_data_out[24] O
la_data_out[25] O
la_data_out[26] O
la_data_out[27] O
la_data_out[28] O
la_data_out[29] O
la_data_out[2] O
la_data_out[30] O
la_data_out[31] O
la_data_out[32] O
la_data_out[33] O
la_data_out[34] O
la_data_out[35] O
la_data_out[36] O
la_data_out[37] O
la_data_out[38] O
la_data_out[39] O
la_data_out[3] O
la_data_out[40] O
la_data_out[41] O
la_data_out[42] O
la_data_out[43] O
la_data_out[44] O
la_data_out[45] O
la_data_out[46] O
la_data_out[47] O
la_data_out[48] O
la_data_out[49] O
la_data_out[4] O
la_data_out[50] O
la_data_out[51] O
la_data_out[52] O
la_data_out[53] O
la_data_out[54] O
la_data_out[55] O
la_data_out[56] O
la_data_out[57] O
la_data_out[58] O
la_data_out[59] O
la_data_out[5] O
la_data_out[60] O
la_data_out[61] O
la_data_out[62] O
la_data_out[63] O
la_data_out[64] O
la_data_out[65] O
la_data_out[66] O
la_data_out[67] O
la_data_out[68] O
la_data_out[69] O
la_data_out[6] O
la_data_out[70] O
la_data_out[71] O
la_data_out[72] O
la_data_out[73] O
la_data_out[74] O
la_data_out[75] O
la_data_out[76] O
la_data_out[77] O
la_data_out[78] O
la_data_out[79] O
la_data_out[7] O
la_data_out[80] O
la_data_out[81] O
la_data_out[82] O
la_data_out[83] O
la_data_out[84] O
la_data_out[85] O
la_data_out[86] O
la_data_out[87] O
la_data_out[88] O
la_data_out[89] O
la_data_out[8] O
la_data_out[90] O
la_data_out[91] O
la_data_out[92] O
la_data_out[93] O
la_data_out[94] O
la_data_out[95] O
la_data_out[96] O
la_data_out[97] O
la_data_out[98] O
la_data_out[99] O
la_data_out[9] O
la_oenb[0] I
la_oenb[100] I
la_oenb[101] I
la_oenb[102] I
la_oenb[103] I
la_oenb[104] I
la_oenb[105] I
la_oenb[106] I
la_oenb[107] I
la_oenb[108] I
la_oenb[109] I
la_oenb[10] I
la_oenb[110] I
la_oenb[111] I
la_oenb[112] I
la_oenb[113] I
la_oenb[114] I
la_oenb[115] I
la_oenb[116] I
la_oenb[117] I
la_oenb[118] I
la_oenb[119] I
la_oenb[11] I
la_oenb[120] I
la_oenb[121] I
la_oenb[122] I
la_oenb[123] I
la_oenb[124] I
la_oenb[125] I
la_oenb[126] I
la_oenb[127] I
la_oenb[12] I
la_oenb[13] I
la_oenb[14] I
la_oenb[15] I
la_oenb[16] I
la_oenb[17] I
la_oenb[18] I
la_oenb[19] I
la_oenb[1] I
la_oenb[20] I
la_oenb[21] I
la_oenb[22] I
la_oenb[23] I
la_oenb[24] I
la_oenb[25] I
la_oenb[26] I
la_oenb[27] I
la_oenb[28] I
la_oenb[29] I
la_oenb[2] I
la_oenb[30] I
la_oenb[31] I
la_oenb[32] I
la_oenb[33] I
la_oenb[34] I
la_oenb[35] I
la_oenb[36] I
la_oenb[37] I
la_oenb[38] I
la_oenb[39] I
la_oenb[3] I
la_oenb[40] I
la_oenb[41] I
la_oenb[42] I
la_oenb[43] I
la_oenb[44] I
la_oenb[45] I
la_oenb[46] I
la_oenb[47] I
la_oenb[48] I
la_oenb[49] I
la_oenb[4] I
la_oenb[50] I
la_oenb[51] I
la_oenb[52] I
la_oenb[53] I
la_oenb[54] I
la_oenb[55] I
la_oenb[56] I
la_oenb[57] I
la_oenb[58] I
la_oenb[59] I
la_oenb[5] I
la_oenb[60] I
la_oenb[61] I
la_oenb[62] I
la_oenb[63] I
la_oenb[64] I
la_oenb[65] I
la_oenb[66] I
la_oenb[67] I
la_oenb[68] I
la_oenb[69] I
la_oenb[6] I
la_oenb[70] I
la_oenb[71] I
la_oenb[72] I
la_oenb[73] I
la_oenb[74] I
la_oenb[75] I
la_oenb[76] I
la_oenb[77] I
la_oenb[78] I
la_oenb[79] I
la_oenb[7] I
la_oenb[80] I
la_oenb[81] I
la_oenb[82] I
la_oenb[83] I
la_oenb[84] I
la_oenb[85] I
la_oenb[86] I
la_oenb[87] I
la_oenb[88] I
la_oenb[89] I
la_oenb[8] I
la_oenb[90] I
la_oenb[91] I
la_oenb[92] I
la_oenb[93] I
la_oenb[94] I
la_oenb[95] I
la_oenb[96] I
la_oenb[97] I
la_oenb[98] I
la_oenb[99] I
la_oenb[9] I
user_clock2 I
user_irq[0] O
user_irq[1] O
user_irq[2] O
wb_clk_i I
wb_rst_i I
wbs_ack_o O
wbs_adr_i[0] I
wbs_adr_i[10] I
wbs_adr_i[11] I
wbs_adr_i[12] I
wbs_adr_i[13] I
wbs_adr_i[14] I
wbs_adr_i[15] I
wbs_adr_i[16] I
wbs_adr_i[17] I
wbs_adr_i[18] I
wbs_adr_i[19] I
wbs_adr_i[1] I
wbs_adr_i[20] I
wbs_adr_i[21] I
wbs_adr_i[22] I
wbs_adr_i[23] I
wbs_adr_i[24] I
wbs_adr_i[25] I
wbs_adr_i[26] I
wbs_adr_i[27] I
wbs_adr_i[28] I
wbs_adr_i[29] I
wbs_adr_i[2] I
wbs_adr_i[30] I
wbs_adr_i[31] I
wbs_adr_i[3] I
wbs_adr_i[4] I
wbs_adr_i[5] I
wbs_adr_i[6] I
wbs_adr_i[7] I
wbs_adr_i[8] I
wbs_adr_i[9] I
wbs_cyc_i I
wbs_dat_i[0] I
wbs_dat_i[10] I
wbs_dat_i[11] I
wbs_dat_i[12] I
wbs_dat_i[13] I
wbs_dat_i[14] I
wbs_dat_i[15] I
wbs_dat_i[16] I
wbs_dat_i[17] I
wbs_dat_i[18] I
wbs_dat_i[19] I
wbs_dat_i[1] I
wbs_dat_i[20] I
wbs_dat_i[21] I
wbs_dat_i[22] I
wbs_dat_i[23] I
wbs_dat_i[24] I
wbs_dat_i[25] I
wbs_dat_i[26] I
wbs_dat_i[27] I
wbs_dat_i[28] I
wbs_dat_i[29] I
wbs_dat_i[2] I
wbs_dat_i[30] I
wbs_dat_i[31] I
wbs_dat_i[3] I
wbs_dat_i[4] I
wbs_dat_i[5] I
wbs_dat_i[6] I
wbs_dat_i[7] I
wbs_dat_i[8] I
wbs_dat_i[9] I
wbs_dat_o[0] O
wbs_dat_o[10] O
wbs_dat_o[11] O
wbs_dat_o[12] O
wbs_dat_o[13] O
wbs_dat_o[14] O
wbs_dat_o[15] O
wbs_dat_o[16] O
wbs_dat_o[17] O
wbs_dat_o[18] O
wbs_dat_o[19] O
wbs_dat_o[1] O
wbs_dat_o[20] O
wbs_dat_o[21] O
wbs_dat_o[22] O
wbs_dat_o[23] O
wbs_dat_o[24] O
wbs_dat_o[25] O
wbs_dat_o[26] O
wbs_dat_o[27] O
wbs_dat_o[28] O
wbs_dat_o[29] O
wbs_dat_o[2] O
wbs_dat_o[30] O
wbs_dat_o[31] O
wbs_dat_o[3] O
wbs_dat_o[4] O
wbs_dat_o[5] O
wbs_dat_o[6] O
wbs_dat_o[7] O
wbs_dat_o[8] O
wbs_dat_o[9] O
wbs_sel_i[0] I
wbs_sel_i[1] I
wbs_sel_i[2] I
wbs_sel_i[3] I
wbs_stb_i I
wbs_we_i I

*D_NET *540 0.0249122
*CONN
*P wb_clk_i I
*I *646:wb_clk_i I *D CF_SRAM_1024x32_wb_wrapper
*CAP
1 wb_clk_i 0.00739843
2 *646:wb_clk_i 0.00476222
3 *540:13 0.0121606
4 *646:wb_clk_i *646:wb_rst_i 0
5 *646:wb_clk_i *542:5 0
6 *540:13 wbs_dat_o[2] 0.000590911
7 *540:13 *542:11 0
8 *540:13 *575:15 0
9 *540:13 *576:17 0
*RES
1 wb_clk_i *540:13 49.6817 
2 *540:13 *646:wb_clk_i 109.237 
*END

*D_NET *541 0.0243036
*CONN
*P wb_rst_i I
*I *646:wb_rst_i I *D CF_SRAM_1024x32_wb_wrapper
*CAP
1 wb_rst_i 0.000684513
2 *646:wb_rst_i 0.00665378
3 *541:13 0.0111497
4 *541:11 0.00518039
5 *646:wb_rst_i *542:5 0
6 *646:wb_rst_i *543:17 0
7 *541:13 wbs_ack_o 0.000635207
8 *541:13 *575:15 0
9 *646:wb_clk_i *646:wb_rst_i 0
*RES
1 wb_rst_i *541:11 18.9317 
2 *541:11 *541:13 108.605 
3 *541:13 *646:wb_rst_i 46.8367 
*END

*D_NET *542 0.0238357
*CONN
*P wbs_ack_o O
*I *646:wbs_ack_o O *D CF_SRAM_1024x32_wb_wrapper
*CAP
1 wbs_ack_o 0.00057777
2 *646:wbs_ack_o 0.00444269
3 *542:11 0.00715757
4 *542:5 0.0110225
5 *542:5 *646:wbs_cyc_i 0
6 *646:wb_clk_i *542:5 0
7 *646:wb_rst_i *542:5 0
8 *540:13 *542:11 0
9 *541:13 wbs_ack_o 0.000635207
*RES
1 *646:wbs_ack_o *542:5 102.194 
2 *542:5 *542:11 38.2096 
3 *542:11 wbs_ack_o 17.6175 
*END

*D_NET *543 0.0223935
*CONN
*P wbs_adr_i[0] I
*I *646:wbs_adr_i[0] I *D CF_SRAM_1024x32_wb_wrapper
*CAP
1 wbs_adr_i[0] 0.0016332
2 *646:wbs_adr_i[0] 0.00072573
3 *543:17 0.00665725
4 *543:11 0.00883783
5 *543:9 0.00453951
6 *646:wbs_adr_i[0] *646:wbs_dat_i[0] 0
7 *646:wbs_adr_i[0] *646:wbs_we_i 0
8 *543:9 *645:17 0
9 *543:17 *554:17 0
10 *646:wb_rst_i *543:17 0
*RES
1 wbs_adr_i[0] *543:9 36.9439 
2 *543:9 *543:11 67.5907 
3 *543:11 *543:17 35.8053 
4 *543:17 *646:wbs_adr_i[0] 16.2711 
*END

*D_NET *544 0.0128254
*CONN
*P wbs_adr_i[10] I
*I *646:wbs_adr_i[10] I *D CF_SRAM_1024x32_wb_wrapper
*CAP
1 wbs_adr_i[10] 0.00115514
2 *646:wbs_adr_i[10] 0.00483591
3 *544:13 0.00599105
4 *646:wbs_adr_i[10] *646:wbs_dat_i[10] 0
5 *646:wbs_adr_i[10] *646:wbs_dat_i[9] 0
6 *646:wbs_adr_i[10] *607:13 0
7 *646:wbs_adr_i[10] *609:5 0
8 *646:wbs_adr_i[10] *609:13 0
9 *646:wbs_adr_i[10] *639:5 0
10 *544:13 *646:wbs_adr_i[12] 8.39112e-05
11 *544:13 *646:wbs_dat_i[12] 0.000189854
12 *544:13 *609:13 0.000569506
*RES
1 wbs_adr_i[10] *544:13 26.6471 
2 *544:13 *646:wbs_adr_i[10] 112.054 
*END

*D_NET *545 0.0161235
*CONN
*P wbs_adr_i[11] I
*I *646:wbs_adr_i[11] I *D CF_SRAM_1024x32_wb_wrapper
*CAP
1 wbs_adr_i[11] 0.00114607
2 *646:wbs_adr_i[11] 0.00525311
3 *545:11 0.00639917
4 *646:wbs_adr_i[11] *646:wbs_dat_i[11] 0
5 *646:wbs_adr_i[11] *609:5 0
6 *646:wbs_adr_i[11] *609:13 0
7 *545:11 wbs_dat_o[11] 5.5403e-05
8 *545:11 wbs_dat_o[14] 0.000169384
9 *545:11 *546:13 8.42051e-05
10 *545:11 *578:11 0.00124795
11 *545:11 *579:13 0.00176823
12 *545:11 *609:13 0
*RES
1 wbs_adr_i[11] *545:11 22.0616 
2 *545:11 *646:wbs_adr_i[11] 117.688 
*END

*D_NET *546 0.0179428
*CONN
*P wbs_adr_i[12] I
*I *646:wbs_adr_i[12] I *D CF_SRAM_1024x32_wb_wrapper
*CAP
1 wbs_adr_i[12] 0.00113481
2 *646:wbs_adr_i[12] 0.00496977
3 *546:13 0.00610458
4 *646:wbs_adr_i[12] wbs_dat_o[9] 0
5 *646:wbs_adr_i[12] *646:wbs_dat_i[12] 0
6 *646:wbs_adr_i[12] *610:7 0
7 *646:wbs_adr_i[12] *610:9 0
8 *546:13 wbs_dat_o[11] 0.00309312
9 *546:13 wbs_dat_o[15] 6.00331e-05
10 *546:13 wbs_dat_o[16] 0.000548002
11 *546:13 *579:13 0.00186439
12 *544:13 *646:wbs_adr_i[12] 8.39112e-05
13 *545:11 *546:13 8.42051e-05
*RES
1 wbs_adr_i[12] *546:13 26.7708 
2 *546:13 *646:wbs_adr_i[12] 115.575 
*END

*D_NET *547 0.0187002
*CONN
*P wbs_adr_i[13] I
*I *646:wbs_adr_i[13] I *D CF_SRAM_1024x32_wb_wrapper
*CAP
1 wbs_adr_i[13] 0.0014117
2 *646:wbs_adr_i[13] 0.00317986
3 *547:15 0.00499621
4 *547:13 0.00322805
5 *646:wbs_adr_i[13] *646:wbs_dat_i[12] 0
6 *646:wbs_adr_i[13] *646:wbs_dat_i[13] 0
7 *646:wbs_adr_i[13] *550:19 0
8 *547:13 *646:wbs_adr_i[20] 0.00172374
9 *547:13 *618:5 0
10 *547:13 *620:5 0
11 *547:15 *646:wbs_adr_i[20] 0.00302198
12 *547:15 *646:wbs_dat_i[20] 0.00113868
13 *547:15 *620:5 0
*RES
1 wbs_adr_i[13] *547:13 37.2339 
2 *547:13 *547:15 74.6336 
3 *547:15 *646:wbs_adr_i[13] 34.4719 
*END

*D_NET *548 0.0196046
*CONN
*P wbs_adr_i[14] I
*I *646:wbs_adr_i[14] I *D CF_SRAM_1024x32_wb_wrapper
*CAP
1 wbs_adr_i[14] 0.00346767
2 *646:wbs_adr_i[14] 0.00445761
3 *548:13 0.00792528
4 *646:wbs_adr_i[14] *646:wbs_dat_i[14] 0
5 *646:wbs_adr_i[14] *612:5 0
6 *646:wbs_adr_i[14] *613:5 0
7 *548:13 *646:wbs_adr_i[22] 0
8 *548:13 *646:wbs_adr_i[23] 0
9 *548:13 *555:11 0.000284775
10 *548:13 *584:11 0.00346929
*RES
1 wbs_adr_i[14] *548:13 44.5786 
2 *548:13 *646:wbs_adr_i[14] 102.194 
*END

*D_NET *549 0.0191133
*CONN
*P wbs_adr_i[15] I
*I *646:wbs_adr_i[15] I *D CF_SRAM_1024x32_wb_wrapper
*CAP
1 wbs_adr_i[15] 0.00526176
2 *646:wbs_adr_i[15] 0.00404841
3 *549:13 0.00404841
4 *549:11 0.00526176
5 *646:wbs_adr_i[15] *646:wbs_dat_i[15] 0
6 *646:wbs_adr_i[15] *613:5 0
7 *646:wbs_adr_i[15] *614:5 0
8 *549:11 *551:13 0
9 *549:11 *592:13 0.000493008
10 *549:11 *624:5 0
11 *549:11 *625:5 0
*RES
1 wbs_adr_i[15] *549:11 47.0049 
2 *549:11 *549:13 8 
3 *549:13 *646:wbs_adr_i[15] 93.7425 
*END

*D_NET *550 0.0217413
*CONN
*P wbs_adr_i[16] I
*I *646:wbs_adr_i[16] I *D CF_SRAM_1024x32_wb_wrapper
*CAP
1 wbs_adr_i[16] 0.00085534
2 *646:wbs_adr_i[16] 0.000682093
3 *550:19 0.00580819
4 *550:11 0.00827165
5 *550:9 0.00400089
6 *646:wbs_adr_i[16] *646:wbs_dat_i[16] 0
7 *646:wbs_adr_i[16] *614:5 0
8 *550:9 *627:5 0
9 *550:9 *628:11 0
10 *550:11 *646:wbs_adr_i[28] 0.000299745
11 *550:11 *646:wbs_dat_i[28] 0
12 *550:11 *627:5 0
13 *550:11 *628:11 0
14 *550:19 *646:wbs_adr_i[21] 0
15 *550:19 *646:wbs_adr_i[28] 0.000717995
16 *550:19 *552:17 0
17 *550:19 *562:15 0.000634261
18 *550:19 *627:5 0.000471144
19 *646:wbs_adr_i[13] *550:19 0
*RES
1 wbs_adr_i[16] *550:9 15.0282 
2 *550:9 *550:11 71.6093 
3 *550:11 *550:19 42.2317 
4 *550:19 *646:wbs_adr_i[16] 23.5668 
*END

*D_NET *551 0.0233016
*CONN
*P wbs_adr_i[17] I
*I *646:wbs_adr_i[17] I *D CF_SRAM_1024x32_wb_wrapper
*CAP
1 wbs_adr_i[17] 0.00174373
2 *646:wbs_adr_i[17] 0.00377684
3 *551:13 0.00825198
4 *551:9 0.00621887
5 *646:wbs_adr_i[17] *646:wbs_dat_i[17] 0
6 *646:wbs_adr_i[17] *615:5 0
7 *551:9 *599:15 0
8 *551:9 *629:9 0
9 *551:9 *631:5 0
10 *551:13 *581:13 0
11 *551:13 *590:13 0
12 *551:13 *593:13 0.00331021
13 *549:11 *551:13 0
*RES
1 wbs_adr_i[17] *551:9 40.6354 
2 *551:9 *551:13 25.0576 
3 *551:13 *646:wbs_adr_i[17] 86.6996 
*END

*D_NET *552 0.0281294
*CONN
*P wbs_adr_i[18] I
*I *646:wbs_adr_i[18] I *D CF_SRAM_1024x32_wb_wrapper
*CAP
1 wbs_adr_i[18] 0.00186576
2 *646:wbs_adr_i[18] 0.000997127
3 *552:17 0.0055026
4 *552:11 0.00728232
5 *552:9 0.0046426
6 *646:wbs_adr_i[18] *646:wbs_dat_i[18] 0
7 *646:wbs_adr_i[18] *616:5 0
8 *552:17 *562:15 0
9 *552:17 *589:17 0.00783896
10 *550:19 *552:17 0
*RES
1 wbs_adr_i[18] *552:9 36.2396 
2 *552:9 *552:11 61.2521 
3 *552:11 *552:17 35.376 
4 *552:17 *646:wbs_adr_i[18] 22.6096 
*END

*D_NET *553 0.0293202
*CONN
*P wbs_adr_i[19] I
*I *646:wbs_adr_i[19] I *D CF_SRAM_1024x32_wb_wrapper
*CAP
1 wbs_adr_i[19] 0.00431255
2 *646:wbs_adr_i[19] 0.00485151
3 *553:13 0.00916406
4 *646:wbs_adr_i[19] *646:wbs_dat_i[19] 0
5 *646:wbs_adr_i[19] *617:5 0
6 *646:wbs_adr_i[19] *618:5 0
7 *553:13 wbs_dat_o[19] 0.00181212
8 *553:13 *555:11 0
9 *553:13 *557:11 0.00019297
10 *553:13 *558:11 0.000256592
11 *553:13 *559:13 0.00075972
12 *553:13 *561:13 0.00646793
13 *553:13 *564:21 0.000873875
14 *553:13 *580:13 0.000371611
15 *553:13 *620:11 0.000142258
16 *553:13 *628:13 0.000115009
*RES
1 wbs_adr_i[19] *553:13 46.8778 
2 *553:13 *646:wbs_adr_i[19] 109.941 
*END

*D_NET *554 0.0207213
*CONN
*P wbs_adr_i[1] I
*I *646:wbs_adr_i[1] I *D CF_SRAM_1024x32_wb_wrapper
*CAP
1 wbs_adr_i[1] 0.00165931
2 *646:wbs_adr_i[1] 0.00101714
3 *554:17 0.00609666
4 *554:11 0.00768419
5 *554:9 0.00426398
6 *646:wbs_adr_i[1] *646:wbs_dat_i[1] 0
7 *646:wbs_adr_i[1] *646:wbs_sel_i[0] 0
8 *543:17 *554:17 0
*RES
1 wbs_adr_i[1] *554:9 36.9439 
2 *554:9 *554:11 60.5479 
3 *554:11 *554:17 33.1435 
4 *554:17 *646:wbs_adr_i[1] 23.3139 
*END

*D_NET *555 0.0349686
*CONN
*P wbs_adr_i[20] I
*I *646:wbs_adr_i[20] I *D CF_SRAM_1024x32_wb_wrapper
*CAP
1 wbs_adr_i[20] 0.00497425
2 *646:wbs_adr_i[20] 0.00333371
3 *555:13 0.00333371
4 *555:11 0.00497425
5 *646:wbs_adr_i[20] *646:wbs_dat_i[20] 0
6 *646:wbs_adr_i[20] *618:5 0
7 *555:11 *584:11 0
8 *555:11 *595:13 0.00131845
9 *555:11 *620:11 0.0120037
10 *547:13 *646:wbs_adr_i[20] 0.00172374
11 *547:15 *646:wbs_adr_i[20] 0.00302198
12 *548:13 *555:11 0.000284775
13 *553:13 *555:11 0
*RES
1 wbs_adr_i[20] *555:11 44.7738 
2 *555:11 *555:13 8 
3 *555:13 *646:wbs_adr_i[20] 105.715 
*END

*D_NET *556 0.0308923
*CONN
*P wbs_adr_i[21] I
*I *646:wbs_adr_i[21] I *D CF_SRAM_1024x32_wb_wrapper
*CAP
1 wbs_adr_i[21] 0.00186554
2 *646:wbs_adr_i[21] 0.00690682
3 *556:11 0.0102807
4 *556:9 0.00523943
5 *646:wbs_adr_i[21] *646:wbs_dat_i[21] 0
6 *646:wbs_adr_i[21] *567:15 0.00659978
7 *646:wbs_adr_i[21] *620:5 0
8 *556:9 wbs_dat_o[20] 0
9 *550:19 *646:wbs_adr_i[21] 0
*RES
1 wbs_adr_i[21] *556:9 36.9439 
2 *556:9 *556:11 75.3379 
3 *556:11 *646:wbs_adr_i[21] 49.9965 
*END

*D_NET *557 0.0446164
*CONN
*P wbs_adr_i[22] I
*I *646:wbs_adr_i[22] I *D CF_SRAM_1024x32_wb_wrapper
*CAP
1 wbs_adr_i[22] 0.00396607
2 *646:wbs_adr_i[22] 0.00485344
3 *557:13 0.00485344
4 *557:11 0.00396607
5 *646:wbs_adr_i[22] *646:wbs_dat_i[22] 0
6 *646:wbs_adr_i[22] *621:5 0
7 *646:wbs_adr_i[22] *622:18 0.000245087
8 *557:11 *558:11 0.0139004
9 *557:11 *595:13 0
10 *557:11 *620:11 0.012524
11 *557:11 *628:13 0.000115009
12 *548:13 *646:wbs_adr_i[22] 0
13 *553:13 *557:11 0.00019297
*RES
1 wbs_adr_i[22] *557:11 47.7915 
2 *557:11 *557:13 8 
3 *557:13 *646:wbs_adr_i[22] 107.124 
*END

*D_NET *558 0.0486952
*CONN
*P wbs_adr_i[23] I
*I *646:wbs_adr_i[23] I *D CF_SRAM_1024x32_wb_wrapper
*CAP
1 wbs_adr_i[23] 0.00410132
2 *646:wbs_adr_i[23] 0.00483102
3 *558:13 0.00483102
4 *558:11 0.00410132
5 *646:wbs_adr_i[23] *646:wbs_dat_i[22] 0
6 *646:wbs_adr_i[23] *646:wbs_dat_i[23] 0
7 *646:wbs_adr_i[23] *581:9 0
8 *558:11 *559:13 0.0152887
9 *558:11 *564:21 0.0013849
10 *558:11 *591:7 0
11 *558:11 *595:13 0
12 *548:13 *646:wbs_adr_i[23] 0
13 *553:13 *558:11 0.000256592
14 *557:11 *558:11 0.0139004
*RES
1 wbs_adr_i[23] *558:11 49.4146 
2 *558:11 *558:13 8 
3 *558:13 *646:wbs_adr_i[23] 107.828 
*END

*D_NET *559 0.0514824
*CONN
*P wbs_adr_i[24] I
*I *646:wbs_adr_i[24] I *D CF_SRAM_1024x32_wb_wrapper
*CAP
1 wbs_adr_i[24] 0.000690668
2 *646:wbs_adr_i[24] 0.00486929
3 *559:13 0.00834359
4 *559:9 0.00416497
5 *646:wbs_adr_i[24] *646:wbs_dat_i[24] 0
6 *646:wbs_adr_i[24] *623:7 0
7 *646:wbs_adr_i[24] *623:9 0
8 *646:wbs_adr_i[24] *624:5 0
9 *559:13 *561:13 0.0154075
10 *559:13 *564:21 0.001958
11 *559:13 *595:13 0
12 *553:13 *559:13 0.00075972
13 *558:11 *559:13 0.0152887
*RES
1 wbs_adr_i[24] *559:9 18.8025 
2 *559:9 *559:13 39.2256 
3 *559:13 *646:wbs_adr_i[24] 108.533 
*END

*D_NET *560 0.031684
*CONN
*P wbs_adr_i[25] I
*I *646:wbs_adr_i[25] I *D CF_SRAM_1024x32_wb_wrapper
*CAP
1 wbs_adr_i[25] 0.00178772
2 *646:wbs_adr_i[25] 0.00134942
3 *560:17 0.0116877
4 *560:11 0.0127049
5 *560:9 0.00415431
6 *646:wbs_adr_i[25] *646:wbs_dat_i[25] 0
7 *646:wbs_adr_i[25] *624:5 0
8 *560:17 *563:11 0
9 *560:17 *583:17 0
10 *560:17 *589:17 0
*RES
1 wbs_adr_i[25] *560:9 36.9439 
2 *560:9 *560:11 53.505 
3 *560:11 *560:17 49.544 
4 *560:17 *646:wbs_adr_i[25] 30.3568 
*END

*D_NET *561 0.0509844
*CONN
*P wbs_adr_i[26] I
*I *646:wbs_adr_i[26] I *D CF_SRAM_1024x32_wb_wrapper
*CAP
1 wbs_adr_i[26] 0.000625122
2 *646:wbs_adr_i[26] 0.00434293
3 *561:13 0.0109411
4 *561:9 0.00722327
5 *646:wbs_adr_i[26] *646:wbs_dat_i[26] 0
6 *646:wbs_adr_i[26] *582:7 0.00284614
7 *646:wbs_adr_i[26] *625:5 0
8 *646:wbs_adr_i[26] *626:5 0
9 *561:9 *628:13 0.000115009
10 *561:13 wbs_dat_o[19] 0
11 *561:13 *564:21 0.00301549
12 *561:13 *595:13 0
13 *561:13 *599:11 0
14 *553:13 *561:13 0.00646793
15 *559:13 *561:13 0.0154075
*RES
1 wbs_adr_i[26] *561:9 18.5746 
2 *561:9 *561:13 43.1755 
3 *561:13 *646:wbs_adr_i[26] 109.237 
*END

*D_NET *562 0.0336914
*CONN
*P wbs_adr_i[27] I
*I *646:wbs_adr_i[27] I *D CF_SRAM_1024x32_wb_wrapper
*CAP
1 wbs_adr_i[27] 0.00172937
2 *646:wbs_adr_i[27] 0.000723424
3 *562:15 0.0118458
4 *562:11 0.0140758
5 *562:9 0.00468277
6 *646:wbs_adr_i[27] *646:wbs_dat_i[27] 0
7 *646:wbs_adr_i[27] *626:5 0
8 *562:15 *567:15 0
9 *562:15 *589:17 0
10 *550:19 *562:15 0.000634261
11 *552:17 *562:15 0
*RES
1 wbs_adr_i[27] *562:9 36.9439 
2 *562:9 *562:11 67.5907 
3 *562:11 *562:15 45.5797 
4 *562:15 *646:wbs_adr_i[27] 24.2711 
*END

*D_NET *563 0.0350314
*CONN
*P wbs_adr_i[28] I
*I *646:wbs_adr_i[28] I *D CF_SRAM_1024x32_wb_wrapper
*CAP
1 wbs_adr_i[28] 0.000121338
2 *646:wbs_adr_i[28] 0.00138613
3 *563:11 0.0131135
4 *563:7 0.0152296
5 *563:5 0.0036235
6 *646:wbs_adr_i[28] *646:wbs_dat_i[28] 0
7 *646:wbs_adr_i[28] *627:5 0
8 *563:11 *566:15 0
9 *563:11 *583:17 0.000539595
10 *550:11 *646:wbs_adr_i[28] 0.000299745
11 *550:19 *646:wbs_adr_i[28] 0.000717995
12 *560:17 *563:11 0
*RES
1 wbs_adr_i[28] *563:5 1.02536 
2 *563:5 *563:7 80.4336 
3 *563:7 *563:11 47.3829 
4 *563:11 *646:wbs_adr_i[28] 45.3996 
*END

*D_NET *564 0.0562856
*CONN
*P wbs_adr_i[29] I
*I *646:wbs_adr_i[29] I *D CF_SRAM_1024x32_wb_wrapper
*CAP
1 wbs_adr_i[29] 0.0222948
2 *646:wbs_adr_i[29] 0.000243331
3 *564:21 0.0225382
4 *564:21 wbs_dat_o[19] 0.000717371
5 *564:21 *646:wbs_dat_i[29] 0.000149504
6 *564:21 *599:11 2.26772e-05
7 *564:21 *622:18 0.00287064
8 *564:21 *629:7 0.000216802
9 *553:13 *564:21 0.000873875
10 *558:11 *564:21 0.0013849
11 *559:13 *564:21 0.001958
12 *561:13 *564:21 0.00301549
*RES
1 wbs_adr_i[29] *564:21 46.1282 
2 *564:21 *646:wbs_adr_i[29] 16.7859 
*END

*D_NET *565 0.0269836
*CONN
*P wbs_adr_i[2] I
*I *646:wbs_adr_i[2] I *D CF_SRAM_1024x32_wb_wrapper
*CAP
1 wbs_adr_i[2] 0.00211305
2 *646:wbs_adr_i[2] 0.00341678
3 *565:19 0.00410227
4 *565:15 0.00279854
5 *646:wbs_adr_i[2] wbs_dat_o[5] 0.000830472
6 *646:wbs_adr_i[2] *646:wbs_dat_i[2] 0
7 *646:wbs_adr_i[2] *646:wbs_sel_i[1] 0
8 *646:wbs_adr_i[2] *603:19 0
9 *646:wbs_adr_i[2] *619:5 0
10 *646:wbs_adr_i[2] *635:13 0.00620906
11 *565:15 *569:13 1.83553e-05
12 *565:15 *633:20 8.15458e-05
13 *565:15 *640:15 0.00249194
14 *565:15 *642:21 0.000559547
15 *565:15 *643:11 0.000737315
16 *565:19 *570:13 0.00018066
17 *565:19 *587:31 0.0019239
18 *565:19 *608:9 0.00127209
19 *565:19 *619:9 0.00012377
20 *565:19 *642:25 0.000124317
*RES
1 wbs_adr_i[2] *565:15 46.2449 
2 *565:15 *565:19 43.2543 
3 *565:19 *646:wbs_adr_i[2] 115.047 
*END

*D_NET *566 0.0368717
*CONN
*P wbs_adr_i[30] I
*I *646:wbs_adr_i[30] I *D CF_SRAM_1024x32_wb_wrapper
*CAP
1 wbs_adr_i[30] 0.000801451
2 *646:wbs_adr_i[30] 0.00198346
3 *566:17 0.00198346
4 *566:15 0.0130419
5 *566:13 0.0130419
6 *566:11 0.0026091
7 *566:9 0.00341055
8 *646:wbs_adr_i[30] *646:wbs_dat_i[30] 0
9 *646:wbs_adr_i[30] *599:15 0
10 *646:wbs_adr_i[30] *629:7 0
11 *646:wbs_adr_i[30] *629:9 0
12 *566:9 *599:9 0
13 *566:15 *588:13 0
14 *563:11 *566:15 0
*RES
1 wbs_adr_i[30] *566:9 15.9811 
2 *566:9 *566:11 60.8586 
3 *566:11 *566:13 8 
4 *566:13 *566:15 43.5904 
5 *566:15 *566:17 8 
6 *566:17 *646:wbs_adr_i[30] 44.4425 
*END

*D_NET *567 0.041834
*CONN
*P wbs_adr_i[31] I
*I *646:wbs_adr_i[31] I *D CF_SRAM_1024x32_wb_wrapper
*CAP
1 wbs_adr_i[31] 0.00157998
2 *646:wbs_adr_i[31] 0.000406487
3 *567:15 0.012824
4 *567:13 0.0124175
5 *567:11 0.0032131
6 *567:9 0.00479308
7 *646:wbs_adr_i[31] *646:wbs_dat_i[31] 0
8 *646:wbs_adr_i[31] *631:5 0
9 *646:wbs_adr_i[21] *567:15 0.00659978
10 *562:15 *567:15 0
*RES
1 wbs_adr_i[31] *567:9 36.2396 
2 *567:9 *567:11 74.6336 
3 *567:11 *567:13 8 
4 *567:13 *567:15 45.6512 
5 *567:15 *646:wbs_adr_i[31] 17.2282 
*END

*D_NET *568 0.02776
*CONN
*P wbs_adr_i[3] I
*I *646:wbs_adr_i[3] I *D CF_SRAM_1024x32_wb_wrapper
*CAP
1 wbs_adr_i[3] 0.00177707
2 *646:wbs_adr_i[3] 0.00498458
3 *568:17 0.00676165
4 *646:wbs_adr_i[3] *646:wbs_dat_i[3] 0
5 *646:wbs_adr_i[3] *646:wbs_sel_i[2] 0
6 *646:wbs_adr_i[3] *604:7 0
7 *646:wbs_adr_i[3] *633:20 0.00153283
8 *568:17 wbs_dat_o[0] 0
9 *568:17 wbs_dat_o[1] 0.00145042
10 *568:17 wbs_dat_o[4] 0.000716888
11 *568:17 *569:13 3.07752e-05
12 *568:17 *570:13 0.00210145
13 *568:17 *587:31 0.000213455
14 *568:17 *598:19 0.00381199
15 *568:17 *601:17 0.000218783
16 *568:17 *602:13 0.000526579
17 *568:17 *603:19 0.000548011
18 *568:17 *608:9 0.00140857
19 *568:17 *640:15 7.74116e-05
20 *568:17 *642:21 0.00159953
*RES
1 wbs_adr_i[3] *568:17 31.0843 
2 *568:17 *646:wbs_adr_i[3] 114.871 
*END

*D_NET *569 0.0229113
*CONN
*P wbs_adr_i[4] I
*I *646:wbs_adr_i[4] I *D CF_SRAM_1024x32_wb_wrapper
*CAP
1 wbs_adr_i[4] 0.00114336
2 *646:wbs_adr_i[4] 0.0041465
3 *569:13 0.00528986
4 *646:wbs_adr_i[4] *646:wbs_dat_i[4] 0
5 *646:wbs_adr_i[4] *646:wbs_sel_i[3] 0
6 *646:wbs_adr_i[4] *634:9 0
7 *646:wbs_adr_i[4] *636:15 0.00121691
8 *646:wbs_adr_i[4] *636:19 0.00282566
9 *646:wbs_adr_i[4] *636:21 0
10 *569:13 wbs_dat_o[4] 0.003783
11 *569:13 *571:11 0.00114521
12 *569:13 *603:19 0.00092243
13 *569:13 *642:21 0.000930188
14 *569:13 *643:11 0.0014591
15 *565:15 *569:13 1.83553e-05
16 *568:17 *569:13 3.07752e-05
*RES
1 wbs_adr_i[4] *569:13 27.1655 
2 *569:13 *646:wbs_adr_i[4] 116.984 
*END

*D_NET *570 0.0191729
*CONN
*P wbs_adr_i[5] I
*I *646:wbs_adr_i[5] I *D CF_SRAM_1024x32_wb_wrapper
*CAP
1 wbs_adr_i[5] 0.000886159
2 *646:wbs_adr_i[5] 0.00439958
3 *570:13 0.00528574
4 *646:wbs_adr_i[5] *646:wbs_dat_i[5] 0
5 *646:wbs_adr_i[5] *572:7 0.00189894
6 *646:wbs_adr_i[5] *572:17 0
7 *646:wbs_adr_i[5] *605:9 0
8 *646:wbs_adr_i[5] *634:7 0
9 *646:wbs_adr_i[5] *634:9 0
10 *570:13 wbs_dat_o[4] 0.00344823
11 *570:13 *571:11 0.000101842
12 *570:13 *603:19 0.000870344
13 *565:19 *570:13 0.00018066
14 *568:17 *570:13 0.00210145
*RES
1 wbs_adr_i[5] *570:13 26.1227 
2 *570:13 *646:wbs_adr_i[5] 115.575 
*END

*D_NET *571 0.0151644
*CONN
*P wbs_adr_i[6] I
*I *646:wbs_adr_i[6] I *D CF_SRAM_1024x32_wb_wrapper
*CAP
1 wbs_adr_i[6] 0.00118271
2 *646:wbs_adr_i[6] 0.0051808
3 *571:11 0.00636352
4 *646:wbs_adr_i[6] wbs_dat_o[7] 0
5 *646:wbs_adr_i[6] *646:wbs_dat_i[6] 0
6 *646:wbs_adr_i[6] *605:9 0
7 *646:wbs_adr_i[6] *605:11 0
8 *646:wbs_adr_i[6] *635:11 0
9 *646:wbs_adr_i[6] *637:13 0
10 *571:11 wbs_dat_o[4] 0.000232827
11 *571:11 *603:19 3.089e-05
12 *571:11 *643:11 0.000926628
13 *569:13 *571:11 0.00114521
14 *570:13 *571:11 0.000101842
*RES
1 wbs_adr_i[6] *571:11 22.671 
2 *571:11 *646:wbs_adr_i[6] 117.688 
*END

*D_NET *572 0.0139864
*CONN
*P wbs_adr_i[7] I
*I *646:wbs_adr_i[7] I *D CF_SRAM_1024x32_wb_wrapper
*CAP
1 wbs_adr_i[7] 4.49146e-05
2 *646:wbs_adr_i[7] 0.00239928
3 *572:17 0.00389926
4 *572:7 0.00302638
5 *572:5 0.00157131
6 *646:wbs_adr_i[7] *646:wbs_dat_i[6] 0
7 *646:wbs_adr_i[7] *646:wbs_dat_i[7] 0
8 *646:wbs_adr_i[7] *573:11 0
9 *646:wbs_adr_i[7] *636:11 0
10 *646:wbs_adr_i[7] *637:11 0
11 *646:wbs_adr_i[7] *637:13 0
12 *572:7 *605:9 0
13 *572:7 *634:9 0
14 *572:17 *634:9 0.00114632
15 *646:wbs_adr_i[5] *572:7 0.00189894
16 *646:wbs_adr_i[5] *572:17 0
*RES
1 wbs_adr_i[7] *572:5 1.02536 
2 *572:5 *572:7 49.1136 
3 *572:7 *572:17 35.1978 
4 *572:17 *646:wbs_adr_i[7] 55.0068 
*END

*D_NET *573 0.0110822
*CONN
*P wbs_adr_i[8] I
*I *646:wbs_adr_i[8] I *D CF_SRAM_1024x32_wb_wrapper
*CAP
1 wbs_adr_i[8] 0.00155525
2 *646:wbs_adr_i[8] 0.00118939
3 *573:11 0.00394144
4 *573:9 0.0043073
5 *646:wbs_adr_i[8] *646:wbs_dat_i[8] 0
6 *646:wbs_adr_i[8] *637:11 8.88111e-05
7 *646:wbs_adr_i[7] *573:11 0
*RES
1 wbs_adr_i[8] *573:9 36.2396 
2 *573:9 *573:11 64.0693 
3 *573:11 *646:wbs_adr_i[8] 36.793 
*END

*D_NET *574 0.0108244
*CONN
*P wbs_adr_i[9] I
*I *646:wbs_adr_i[9] I *D CF_SRAM_1024x32_wb_wrapper
*CAP
1 wbs_adr_i[9] 0.000505436
2 *646:wbs_adr_i[9] 0.00490675
3 *574:13 0.00541218
4 *646:wbs_adr_i[9] *646:wbs_dat_i[9] 0
5 *646:wbs_adr_i[9] *638:5 0
*RES
1 wbs_adr_i[9] *574:13 40.6057 
2 *574:13 *646:wbs_adr_i[9] 114.343 
*END

*D_NET *575 0.0331254
*CONN
*P wbs_cyc_i I
*I *646:wbs_cyc_i I *D CF_SRAM_1024x32_wb_wrapper
*CAP
1 wbs_cyc_i 0.00268213
2 *646:wbs_cyc_i 0.00492112
3 *575:21 0.00492112
4 *575:19 0.00094653
5 *575:17 0.00094653
6 *575:15 0.00268213
7 *646:wbs_cyc_i *646:wbs_stb_i 0
8 *646:wbs_cyc_i *646:wbs_we_i 0
9 *575:15 *576:17 0.00231078
10 *575:15 *587:27 0.000404006
11 *575:15 *598:19 1.05441e-05
12 *575:15 *645:17 0.00600486
13 *575:19 wbs_dat_o[2] 0.000282192
14 *575:19 *576:17 0.000112764
15 *575:19 *576:19 0.00323461
16 *575:19 *601:17 0.000388875
17 *575:19 *645:19 0.00327718
18 *540:13 *575:15 0
19 *541:13 *575:15 0
20 *542:5 *646:wbs_cyc_i 0
*RES
1 wbs_cyc_i *575:15 36.4824 
2 *575:15 *575:17 15 
3 *575:17 *575:19 46.3586 
4 *575:19 *575:21 15 
5 *575:21 *646:wbs_cyc_i 112.934 
*END

*D_NET *576 0.0275901
*CONN
*P wbs_dat_i[0] I
*I *646:wbs_dat_i[0] I *D CF_SRAM_1024x32_wb_wrapper
*CAP
1 wbs_dat_i[0] 0.00274094
2 *646:wbs_dat_i[0] 0.00493275
3 *576:21 0.00493275
4 *576:19 0.00137927
5 *576:17 0.00412021
6 *646:wbs_dat_i[0] *646:wbs_we_i 0
7 *646:wbs_dat_i[0] *608:5 0
8 *576:17 wbs_dat_o[2] 0.00044567
9 *576:17 *587:27 0.00127791
10 *576:17 *598:19 0.00055195
11 *576:17 *645:17 4.09006e-05
12 *576:19 wbs_dat_o[2] 0.000731152
13 *576:19 *630:9 0.000662276
14 *576:19 *645:19 0.000116151
15 *646:wbs_adr_i[0] *646:wbs_dat_i[0] 0
16 *540:13 *576:17 0
17 *575:15 *576:17 0.00231078
18 *575:19 *576:17 0.000112764
19 *575:19 *576:19 0.00323461
*RES
1 wbs_dat_i[0] *576:17 49.1636 
2 *576:17 *576:19 44.9293 
3 *576:19 *576:21 15 
4 *576:21 *646:wbs_dat_i[0] 112.582 
*END

*D_NET *577 0.0128594
*CONN
*P wbs_dat_i[10] I
*I *646:wbs_dat_i[10] I *D CF_SRAM_1024x32_wb_wrapper
*CAP
1 wbs_dat_i[10] 0.00175128
2 *646:wbs_dat_i[10] 0.00345498
3 *577:13 0.00467842
4 *577:9 0.00297472
5 *646:wbs_dat_i[10] *609:5 0
6 *577:9 *646:wbs_dat_i[12] 0
7 *577:9 *580:15 0
8 *577:9 *612:5 0
9 *646:wbs_adr_i[10] *646:wbs_dat_i[10] 0
*RES
1 wbs_dat_i[10] *577:9 47.4504 
2 *577:9 *577:13 11.4907 
3 *577:13 *646:wbs_dat_i[10] 80.3611 
*END

*D_NET *578 0.0165261
*CONN
*P wbs_dat_i[11] I
*I *646:wbs_dat_i[11] I *D CF_SRAM_1024x32_wb_wrapper
*CAP
1 wbs_dat_i[11] 0.00128924
2 *646:wbs_dat_i[11] 0.00496051
3 *578:11 0.00624976
4 *646:wbs_dat_i[11] wbs_dat_o[9] 0.00144031
5 *646:wbs_dat_i[11] *610:7 0
6 *646:wbs_dat_i[11] *610:9 0
7 *578:11 wbs_dat_o[14] 0.000740791
8 *578:11 *612:9 0.000597481
9 *646:wbs_adr_i[11] *646:wbs_dat_i[11] 0
10 *545:11 *578:11 0.00124795
*RES
1 wbs_dat_i[11] *578:11 23.1391 
2 *578:11 *646:wbs_dat_i[11] 119.097 
*END

*D_NET *579 0.0188902
*CONN
*P wbs_dat_i[12] I
*I *646:wbs_dat_i[12] I *D CF_SRAM_1024x32_wb_wrapper
*CAP
1 wbs_dat_i[12] 0.0012866
2 *646:wbs_dat_i[12] 0.00501003
3 *579:13 0.00629663
4 *646:wbs_dat_i[12] *611:20 0.000944275
5 *579:13 wbs_dat_o[14] 0.00125133
6 *579:13 wbs_dat_o[16] 5.83591e-05
7 *579:13 wbs_dat_o[17] 0.000220441
8 *646:wbs_adr_i[12] *646:wbs_dat_i[12] 0
9 *646:wbs_adr_i[13] *646:wbs_dat_i[12] 0
10 *544:13 *646:wbs_dat_i[12] 0.000189854
11 *545:11 *579:13 0.00176823
12 *546:13 *579:13 0.00186439
13 *577:9 *646:wbs_dat_i[12] 0
*RES
1 wbs_dat_i[12] *579:13 25.9633 
2 *579:13 *646:wbs_dat_i[12] 116.984 
*END

*D_NET *580 0.0180146
*CONN
*P wbs_dat_i[13] I
*I *646:wbs_dat_i[13] I *D CF_SRAM_1024x32_wb_wrapper
*CAP
1 wbs_dat_i[13] 0.00226144
2 *646:wbs_dat_i[13] 0.00150659
3 *580:15 0.00499143
4 *580:13 0.00574628
5 *646:wbs_dat_i[13] *612:5 0
6 *580:13 wbs_dat_o[11] 0.000442383
7 *580:13 wbs_dat_o[15] 0.00149437
8 *580:13 wbs_dat_o[19] 0.000824306
9 *580:13 *609:13 0.000376157
10 *580:15 *612:5 0
11 *646:wbs_adr_i[13] *646:wbs_dat_i[13] 0
12 *553:13 *580:13 0.000371611
13 *577:9 *580:15 0
*RES
1 wbs_dat_i[13] *580:13 32.164 
2 *580:13 *580:15 79.2114 
3 *580:15 *646:wbs_dat_i[13] 34.3132 
*END

*D_NET *581 0.0184412
*CONN
*P wbs_dat_i[14] I
*I *646:wbs_dat_i[14] I *D CF_SRAM_1024x32_wb_wrapper
*CAP
1 wbs_dat_i[14] 0.00188333
2 *646:wbs_dat_i[14] 0.00343719
3 *581:13 0.00695111
4 *581:9 0.00539724
5 *646:wbs_dat_i[14] *613:5 0
6 *581:9 *623:9 0
7 *581:13 *582:13 0
8 *581:13 *590:13 0.00077229
9 *581:13 *591:13 0
10 *646:wbs_adr_i[14] *646:wbs_dat_i[14] 0
11 *646:wbs_adr_i[23] *581:9 0
12 *551:13 *581:13 0
*RES
1 wbs_dat_i[14] *581:9 47.6782 
2 *581:9 *581:13 19.7339 
3 *581:13 *646:wbs_dat_i[14] 79.6568 
*END

*D_NET *582 0.0222024
*CONN
*P wbs_dat_i[15] I
*I *646:wbs_dat_i[15] I *D CF_SRAM_1024x32_wb_wrapper
*CAP
1 wbs_dat_i[15] 0.00171809
2 *646:wbs_dat_i[15] 0.00312869
3 *582:13 0.00703775
4 *582:7 0.00562716
5 *646:wbs_dat_i[15] *614:5 0
6 *582:7 *625:5 0
7 *582:13 *585:17 0
8 *582:13 *591:13 0.00184454
9 *646:wbs_adr_i[15] *646:wbs_dat_i[15] 0
10 *646:wbs_adr_i[26] *582:7 0.00284614
11 *581:13 *582:13 0
*RES
1 wbs_dat_i[15] *582:7 46.7211 
2 *582:7 *582:13 29.7088 
3 *582:13 *646:wbs_dat_i[15] 72.6139 
*END

*D_NET *583 0.0237055
*CONN
*P wbs_dat_i[16] I
*I *646:wbs_dat_i[16] I *D CF_SRAM_1024x32_wb_wrapper
*CAP
1 wbs_dat_i[16] 0.000102513
2 *646:wbs_dat_i[16] 0.00161357
3 *583:17 0.00641716
4 *583:11 0.00738839
5 *583:9 0.00268732
6 *646:wbs_dat_i[16] *614:5 0
7 *646:wbs_dat_i[16] *615:5 0
8 *583:9 *628:11 1.16689e-05
9 *583:11 *646:wbs_dat_i[29] 0
10 *583:11 *628:5 0.00367839
11 *583:11 *628:11 0.00126692
12 *646:wbs_adr_i[16] *646:wbs_dat_i[16] 0
13 *560:17 *583:17 0
14 *563:11 *583:17 0.000539595
*RES
1 wbs_dat_i[16] *583:9 1.54321 
2 *583:9 *583:11 80.4336 
3 *583:11 *583:17 32.0272 
4 *583:17 *646:wbs_dat_i[16] 36.6954 
*END

*D_NET *584 0.025474
*CONN
*P wbs_dat_i[17] I
*I *646:wbs_dat_i[17] I *D CF_SRAM_1024x32_wb_wrapper
*CAP
1 wbs_dat_i[17] 0.00525997
2 *646:wbs_dat_i[17] 0.00443623
3 *584:13 0.00443623
4 *584:11 0.00525997
5 *646:wbs_dat_i[17] *615:5 0
6 *646:wbs_dat_i[17] *616:5 0
7 *584:11 *592:13 0
8 *584:11 *595:13 0.00249727
9 *584:11 *600:15 0
10 *584:11 *628:13 0.000115009
11 *584:11 *631:5 0
12 *646:wbs_adr_i[17] *646:wbs_dat_i[17] 0
13 *548:13 *584:11 0.00346929
14 *555:11 *584:11 0
*RES
1 wbs_dat_i[17] *584:11 43.9805 
2 *584:11 *584:13 8 
3 *584:13 *646:wbs_dat_i[17] 101.49 
*END

*D_NET *585 0.0267263
*CONN
*P wbs_dat_i[18] I
*I *646:wbs_dat_i[18] I *D CF_SRAM_1024x32_wb_wrapper
*CAP
1 wbs_dat_i[18] 0.000962012
2 *646:wbs_dat_i[18] 0.00285625
3 *585:17 0.00799915
4 *585:13 0.00697116
5 *585:9 0.00279026
6 *646:wbs_dat_i[18] *616:5 0
7 *646:wbs_dat_i[18] *617:5 0
8 *585:17 *586:13 0
9 *585:17 *594:11 0.00514747
10 *585:17 *596:11 0
11 *646:wbs_adr_i[18] *646:wbs_dat_i[18] 0
12 *582:13 *585:17 0
*RES
1 wbs_dat_i[18] *585:9 15.0282 
2 *585:9 *585:13 47.73 
3 *585:13 *585:17 28.1488 
4 *585:17 *646:wbs_dat_i[18] 65.5711 
*END

*D_NET *586 0.0278342
*CONN
*P wbs_dat_i[19] I
*I *646:wbs_dat_i[19] I *D CF_SRAM_1024x32_wb_wrapper
*CAP
1 wbs_dat_i[19] 0.00015595
2 *646:wbs_dat_i[19] 0.00256457
3 *586:13 0.00815958
4 *586:7 0.00842522
5 *586:5 0.00298616
6 *646:wbs_dat_i[19] *618:5 0
7 *586:13 *588:13 0
8 *586:13 *596:11 0.0055427
9 *586:13 *597:11 0
10 *646:wbs_adr_i[19] *646:wbs_dat_i[19] 0
11 *585:17 *586:13 0
*RES
1 wbs_dat_i[19] *586:5 1.02536 
2 *586:5 *586:7 60.0093 
3 *586:7 *586:13 37.8661 
4 *586:13 *646:wbs_dat_i[19] 58.5282 
*END

*D_NET *587 0.02799
*CONN
*P wbs_dat_i[1] I
*I *646:wbs_dat_i[1] I *D CF_SRAM_1024x32_wb_wrapper
*CAP
1 wbs_dat_i[1] 0.00387085
2 *646:wbs_dat_i[1] 0.00501786
3 *587:33 0.00501786
4 *587:31 0.000595064
5 *587:29 0.000595064
6 *587:27 0.00387085
7 *646:wbs_dat_i[1] *646:wbs_sel_i[0] 0
8 *646:wbs_dat_i[1] *619:5 0
9 *587:27 wbs_dat_o[2] 0.000444493
10 *587:27 *598:19 5.45304e-05
11 *587:27 *601:17 7.53943e-05
12 *587:31 *598:19 0.000340525
13 *587:31 *608:9 0.00095889
14 *587:31 *619:9 0.00296299
15 *587:31 *640:17 0.000366346
16 *646:wbs_adr_i[1] *646:wbs_dat_i[1] 0
17 *565:19 *587:31 0.0019239
18 *568:17 *587:31 0.000213455
19 *575:15 *587:27 0.000404006
20 *576:17 *587:27 0.00127791
*RES
1 wbs_dat_i[1] *587:27 41.9864 
2 *587:27 *587:29 15 
3 *587:29 *587:31 39.6886 
4 *587:31 *587:33 15 
5 *587:33 *646:wbs_dat_i[1] 114.695 
*END

*D_NET *588 0.0299612
*CONN
*P wbs_dat_i[20] I
*I *646:wbs_dat_i[20] I *D CF_SRAM_1024x32_wb_wrapper
*CAP
1 wbs_dat_i[20] 0.00015595
2 *646:wbs_dat_i[20] 0.00176412
3 *588:13 0.00780062
4 *588:7 0.00916386
5 *588:5 0.00328331
6 *646:wbs_dat_i[20] *620:5 0
7 *588:13 *597:11 0.0066547
8 *646:wbs_adr_i[20] *646:wbs_dat_i[20] 0
9 *547:15 *646:wbs_dat_i[20] 0.00113868
10 *566:15 *588:13 0
11 *586:13 *588:13 0
*RES
1 wbs_dat_i[20] *588:5 1.02536 
2 *588:5 *588:7 67.0521 
3 *588:7 *588:13 39.9269 
4 *588:13 *646:wbs_dat_i[20] 51.4854 
*END

*D_NET *589 0.0322317
*CONN
*P wbs_dat_i[21] I
*I *646:wbs_dat_i[21] I *D CF_SRAM_1024x32_wb_wrapper
*CAP
1 wbs_dat_i[21] 0.00186211
2 *646:wbs_dat_i[21] 0.00105081
3 *589:17 0.00763542
4 *589:11 0.00928345
5 *589:9 0.00456095
6 *646:wbs_dat_i[21] *620:5 0
7 *646:wbs_dat_i[21] *621:5 0
8 *646:wbs_adr_i[21] *646:wbs_dat_i[21] 0
9 *552:17 *589:17 0.00783896
10 *560:17 *589:17 0
11 *562:15 *589:17 0
*RES
1 wbs_dat_i[21] *589:9 36.9439 
2 *589:9 *589:11 60.5479 
3 *589:11 *589:17 42.0736 
4 *589:17 *646:wbs_dat_i[21] 23.3139 
*END

*D_NET *590 0.0297136
*CONN
*P wbs_dat_i[22] I
*I *646:wbs_dat_i[22] I *D CF_SRAM_1024x32_wb_wrapper
*CAP
1 wbs_dat_i[22] 0.00196927
2 *646:wbs_dat_i[22] 0.0035753
3 *590:13 0.011903
4 *590:9 0.010297
5 *646:wbs_dat_i[22] *622:18 0.00119681
6 *590:13 *591:13 0
7 *590:13 *593:13 0
8 *646:wbs_adr_i[22] *646:wbs_dat_i[22] 0
9 *646:wbs_adr_i[23] *646:wbs_dat_i[22] 0
10 *551:13 *590:13 0
11 *581:13 *590:13 0.00077229
*RES
1 wbs_dat_i[22] *590:9 46.9739 
2 *590:9 *590:13 35.8768 
3 *590:13 *646:wbs_dat_i[22] 80.3611 
*END

*D_NET *591 0.0306572
*CONN
*P wbs_dat_i[23] I
*I *646:wbs_dat_i[23] I *D CF_SRAM_1024x32_wb_wrapper
*CAP
1 wbs_dat_i[23] 0.00229777
2 *646:wbs_dat_i[23] 0.00325546
3 *591:13 0.0120511
4 *591:7 0.0110934
5 *646:wbs_dat_i[23] *623:7 0
6 *646:wbs_dat_i[23] *623:9 0
7 *591:7 *628:13 0.000115009
8 *591:13 *594:11 0
9 *646:wbs_adr_i[23] *646:wbs_dat_i[23] 0
10 *558:11 *591:7 0
11 *581:13 *591:13 0
12 *582:13 *591:13 0.00184454
13 *590:13 *591:13 0
*RES
1 wbs_dat_i[23] *591:7 46.4932 
2 *591:7 *591:13 45.8517 
3 *591:13 *646:wbs_dat_i[23] 73.3182 
*END

*D_NET *592 0.0310631
*CONN
*P wbs_dat_i[24] I
*I *646:wbs_dat_i[24] I *D CF_SRAM_1024x32_wb_wrapper
*CAP
1 wbs_dat_i[24] 0.00132423
2 *646:wbs_dat_i[24] 0.00421094
3 *592:13 0.0139033
4 *592:9 0.0110166
5 *646:wbs_dat_i[24] *624:5 0
6 *592:9 *628:13 0.000115009
7 *592:13 *593:13 0
8 *646:wbs_adr_i[24] *646:wbs_dat_i[24] 0
9 *549:11 *592:13 0.000493008
10 *584:11 *592:13 0
*RES
1 wbs_dat_i[24] *592:9 33.3646 
2 *592:9 *592:13 39.8267 
3 *592:13 *646:wbs_dat_i[24] 94.4468 
*END

*D_NET *593 0.0341185
*CONN
*P wbs_dat_i[25] I
*I *646:wbs_dat_i[25] I *D CF_SRAM_1024x32_wb_wrapper
*CAP
1 wbs_dat_i[25] 0.0015869
2 *646:wbs_dat_i[25] 0.00390137
3 *593:13 0.0138173
4 *593:9 0.0115028
5 *646:wbs_dat_i[25] *624:5 0
6 *646:wbs_dat_i[25] *625:5 0
7 *646:wbs_adr_i[25] *646:wbs_dat_i[25] 0
8 *551:13 *593:13 0.00331021
9 *590:13 *593:13 0
10 *592:13 *593:13 0
*RES
1 wbs_dat_i[25] *593:9 40.1589 
2 *593:9 *593:13 42.4027 
3 *593:13 *646:wbs_dat_i[25] 87.4039 
*END

*D_NET *594 0.0357523
*CONN
*P wbs_dat_i[26] I
*I *646:wbs_dat_i[26] I *D CF_SRAM_1024x32_wb_wrapper
*CAP
1 wbs_dat_i[26] 0.000150731
2 *646:wbs_dat_i[26] 0.00294815
3 *594:13 0.00294815
4 *594:11 0.00988733
5 *594:7 0.0122035
6 *594:5 0.00246695
7 *646:wbs_dat_i[26] *626:5 0
8 *594:11 *596:11 0
9 *646:wbs_adr_i[26] *646:wbs_dat_i[26] 0
10 *585:17 *594:11 0.00514747
11 *591:13 *594:11 0
*RES
1 wbs_dat_i[26] *594:5 1.02536 
2 *594:5 *594:7 52.2621 
3 *594:7 *594:11 44.0341 
4 *594:11 *594:13 8 
5 *594:13 *646:wbs_dat_i[26] 66.2754 
*END

*D_NET *595 0.0355036
*CONN
*P wbs_dat_i[27] I
*I *646:wbs_dat_i[27] I *D CF_SRAM_1024x32_wb_wrapper
*CAP
1 wbs_dat_i[27] 0.000867601
2 *646:wbs_dat_i[27] 0.0045895
3 *595:13 0.0149763
4 *595:9 0.0112544
5 *646:wbs_dat_i[27] *626:5 0
6 *646:wbs_dat_i[27] *627:5 0
7 *595:13 *620:11 0
8 *646:wbs_adr_i[27] *646:wbs_dat_i[27] 0
9 *555:11 *595:13 0.00131845
10 *557:11 *595:13 0
11 *558:11 *595:13 0
12 *559:13 *595:13 0
13 *561:13 *595:13 0
14 *584:11 *595:13 0.00249727
*RES
1 wbs_dat_i[27] *595:9 25.1411 
2 *595:9 *595:13 46.0091 
3 *595:13 *646:wbs_dat_i[27] 102.194 
*END

*D_NET *596 0.0380807
*CONN
*P wbs_dat_i[28] I
*I *646:wbs_dat_i[28] I *D CF_SRAM_1024x32_wb_wrapper
*CAP
1 wbs_dat_i[28] 0.000121338
2 *646:wbs_dat_i[28] 0.00265163
3 *596:13 0.00265163
4 *596:11 0.0109688
5 *596:7 0.013496
6 *596:5 0.00264853
7 *646:wbs_dat_i[28] *628:5 0
8 *596:11 *597:11 0
9 *646:wbs_adr_i[28] *646:wbs_dat_i[28] 0
10 *550:11 *646:wbs_dat_i[28] 0
11 *585:17 *596:11 0
12 *586:13 *596:11 0.0055427
13 *594:11 *596:11 0
*RES
1 wbs_dat_i[28] *596:5 1.02536 
2 *596:5 *596:7 58.6007 
3 *596:7 *596:11 48.0699 
4 *596:11 *596:13 8 
5 *596:13 *646:wbs_dat_i[28] 59.2325 
*END

*D_NET *597 0.0403668
*CONN
*P wbs_dat_i[29] I
*I *646:wbs_dat_i[29] I *D CF_SRAM_1024x32_wb_wrapper
*CAP
1 wbs_dat_i[29] 9.15326e-05
2 *646:wbs_dat_i[29] 0.0023312
3 *597:13 0.0023312
4 *597:11 0.0115164
5 *597:9 0.0115164
6 *597:7 0.00284222
7 *597:5 0.00293375
8 *646:wbs_dat_i[29] *628:5 0
9 *646:wbs_dat_i[29] *629:7 0
10 *646:wbs_dat_i[29] *629:9 0
11 *564:21 *646:wbs_dat_i[29] 0.000149504
12 *583:11 *646:wbs_dat_i[29] 0
13 *586:13 *597:11 0
14 *588:13 *597:11 0.0066547
15 *596:11 *597:11 0
*RES
1 wbs_dat_i[29] *597:5 1.02536 
2 *597:5 *597:7 65.6436 
3 *597:7 *597:9 8 
4 *597:9 *597:11 42.1307 
5 *597:11 *597:13 8 
6 *597:13 *646:wbs_dat_i[29] 52.1896 
*END

*D_NET *598 0.0258951
*CONN
*P wbs_dat_i[2] I
*I *646:wbs_dat_i[2] I *D CF_SRAM_1024x32_wb_wrapper
*CAP
1 wbs_dat_i[2] 0.00184049
2 *646:wbs_dat_i[2] 0.00491016
3 *598:23 0.00519762
4 *598:19 0.00212796
5 *646:wbs_dat_i[2] *646:wbs_sel_i[2] 0
6 *646:wbs_dat_i[2] *630:5 0
7 *598:19 wbs_dat_o[1] 0.000392238
8 *598:19 wbs_dat_o[2] 0.000495283
9 *598:19 *601:17 0.00164226
10 *598:19 *608:5 4.67107e-05
11 *598:19 *619:9 0.000294952
12 *598:19 *642:21 0
13 *598:19 *645:17 0.000973234
14 *598:23 *630:9 0.00160017
15 *598:23 *642:25 0.00160448
16 *646:wbs_adr_i[2] *646:wbs_dat_i[2] 0
17 *568:17 *598:19 0.00381199
18 *575:15 *598:19 1.05441e-05
19 *576:17 *598:19 0.00055195
20 *587:27 *598:19 5.45304e-05
21 *587:31 *598:19 0.000340525
*RES
1 wbs_dat_i[2] *598:19 48.4797 
2 *598:19 *598:23 32.7729 
3 *598:23 *646:wbs_dat_i[2] 113.286 
*END

*D_NET *599 0.0422849
*CONN
*P wbs_dat_i[30] I
*I *646:wbs_dat_i[30] I *D CF_SRAM_1024x32_wb_wrapper
*CAP
1 wbs_dat_i[30] 0.000263579
2 *646:wbs_dat_i[30] 0.00157057
3 *599:15 0.00426801
4 *599:13 0.00269744
5 *599:11 0.010686
6 *599:9 0.0109496
7 *646:wbs_dat_i[30] *631:5 0
8 *599:11 wbs_dat_o[17] 0.000969486
9 *599:11 wbs_dat_o[18] 0.000928731
10 *599:11 wbs_dat_o[19] 0.00237029
11 *599:11 wbs_dat_o[21] 0.00188714
12 *599:11 wbs_dat_o[22] 7.1053e-05
13 *599:11 *624:11 0.00139833
14 *599:11 *627:9 0.000994548
15 *599:15 *631:5 0.00320751
16 *646:wbs_adr_i[30] *646:wbs_dat_i[30] 0
17 *646:wbs_adr_i[30] *599:15 0
18 *551:9 *599:15 0
19 *561:13 *599:11 0
20 *564:21 *599:11 2.26772e-05
21 *566:9 *599:9 0
*RES
1 wbs_dat_i[30] *599:9 12.4639 
2 *599:9 *599:11 43.7621 
3 *599:11 *599:13 8 
4 *599:13 *599:15 81.3243 
5 *599:15 *646:wbs_dat_i[30] 35.2661 
*END

*D_NET *600 0.0673172
*CONN
*P wbs_dat_i[31] I
*I *646:wbs_dat_i[31] I *D CF_SRAM_1024x32_wb_wrapper
*CAP
1 wbs_dat_i[31] 0.000173606
2 *646:wbs_dat_i[31] 0.00154995
3 *600:15 0.00565635
4 *600:13 0.0041064
5 *600:11 0.00311238
6 *600:9 0.00328598
7 *646:wbs_dat_i[31] *631:5 0
8 *646:wbs_dat_i[31] *632:7 0
9 *646:wbs_dat_i[31] *632:9 0
10 *600:11 wbs_dat_o[30] 0.000106579
11 *600:11 *627:9 0.00390625
12 *600:11 *629:13 9.87624e-05
13 *600:11 *631:9 0.0221786
14 *600:11 *632:13 0.0231424
15 *600:15 *632:9 0
16 *646:wbs_adr_i[31] *646:wbs_dat_i[31] 0
17 *584:11 *600:15 0
*RES
1 wbs_dat_i[31] *600:9 17.2993 
2 *600:9 *600:11 254.558 
3 *600:11 *600:13 15 
4 *600:13 *600:15 85.0218 
5 *600:15 *646:wbs_dat_i[31] 34.3132 
*END

*D_NET *601 0.0259528
*CONN
*P wbs_dat_i[3] I
*I *646:wbs_dat_i[3] I *D CF_SRAM_1024x32_wb_wrapper
*CAP
1 wbs_dat_i[3] 0.00152884
2 *646:wbs_dat_i[3] 0.00351825
3 *601:21 0.00439987
4 *601:17 0.00241047
5 *646:wbs_dat_i[3] *646:wbs_sel_i[3] 0
6 *646:wbs_dat_i[3] *604:7 0.00323942
7 *646:wbs_dat_i[3] *604:17 0.0013834
8 *646:wbs_dat_i[3] *633:20 0.00119611
9 *601:17 wbs_dat_o[2] 0.00234989
10 *601:17 wbs_dat_o[3] 0
11 *601:17 *646:wbs_sel_i[0] 1.40826e-05
12 *601:17 *602:13 0.00121647
13 *601:17 *640:17 0.000442438
14 *601:17 *645:19 0.000455514
15 *601:21 *630:9 0.00138801
16 *601:21 *642:25 8.47188e-05
17 *646:wbs_adr_i[3] *646:wbs_dat_i[3] 0
18 *568:17 *601:17 0.000218783
19 *575:19 *601:17 0.000388875
20 *587:27 *601:17 7.53943e-05
21 *598:19 *601:17 0.00164226
*RES
1 wbs_dat_i[3] *601:17 44.6515 
2 *601:17 *601:21 37.5371 
3 *601:21 *646:wbs_dat_i[3] 112.582 
*END

*D_NET *602 0.0179762
*CONN
*P wbs_dat_i[4] I
*I *646:wbs_dat_i[4] I *D CF_SRAM_1024x32_wb_wrapper
*CAP
1 wbs_dat_i[4] 0.00277111
2 *646:wbs_dat_i[4] 0.0048807
3 *602:13 0.00765181
4 *646:wbs_dat_i[4] *634:7 0
5 *646:wbs_dat_i[4] *634:9 0
6 *602:13 wbs_dat_o[2] 7.57281e-06
7 *602:13 wbs_dat_o[4] 0
8 *602:13 *646:wbs_we_i 8.11914e-06
9 *602:13 *603:19 0.000913799
10 *602:13 *642:21 0
11 *646:wbs_adr_i[4] *646:wbs_dat_i[4] 0
12 *568:17 *602:13 0.000526579
13 *601:17 *602:13 0.00121647
*RES
1 wbs_dat_i[4] *602:13 31.0948 
2 *602:13 *646:wbs_dat_i[4] 112.758 
*END

*D_NET *603 0.0174822
*CONN
*P wbs_dat_i[5] I
*I *646:wbs_dat_i[5] I *D CF_SRAM_1024x32_wb_wrapper
*CAP
1 wbs_dat_i[5] 0.00123946
2 *646:wbs_dat_i[5] 0.00388296
3 *603:19 0.00512242
4 *646:wbs_dat_i[5] *605:9 0.00117705
5 *646:wbs_dat_i[5] *605:11 0.00184472
6 *646:wbs_dat_i[5] *635:11 0
7 *603:19 *643:11 0.000930104
8 *646:wbs_adr_i[2] *603:19 0
9 *646:wbs_adr_i[5] *646:wbs_dat_i[5] 0
10 *568:17 *603:19 0.000548011
11 *569:13 *603:19 0.00092243
12 *570:13 *603:19 0.000870344
13 *571:11 *603:19 3.089e-05
14 *602:13 *603:19 0.000913799
*RES
1 wbs_dat_i[5] *603:19 43.2909 
2 *603:19 *646:wbs_dat_i[5] 114.167 
*END

*D_NET *604 0.0160965
*CONN
*P wbs_dat_i[6] I
*I *646:wbs_dat_i[6] I *D CF_SRAM_1024x32_wb_wrapper
*CAP
1 wbs_dat_i[6] 4.49146e-05
2 *646:wbs_dat_i[6] 0.00072856
3 *604:17 0.0026274
4 *604:7 0.00452477
5 *604:5 0.00267084
6 *646:wbs_dat_i[6] *636:11 0
7 *604:7 *646:wbs_sel_i[3] 0
8 *604:7 *633:20 0.000721564
9 *604:17 *646:wbs_sel_i[3] 0
10 *604:17 *633:20 0.000155648
11 *646:wbs_adr_i[3] *604:7 0
12 *646:wbs_adr_i[6] *646:wbs_dat_i[6] 0
13 *646:wbs_adr_i[7] *646:wbs_dat_i[6] 0
14 *646:wbs_dat_i[3] *604:7 0.00323942
15 *646:wbs_dat_i[3] *604:17 0.0013834
*RES
1 wbs_dat_i[6] *604:5 1.02536 
2 *604:5 *604:7 84.1414 
3 *604:7 *604:17 38.4506 
4 *604:17 *646:wbs_dat_i[6] 16.2711 
*END

*D_NET *605 0.0133808
*CONN
*P wbs_dat_i[7] I
*I *646:wbs_dat_i[7] I *D CF_SRAM_1024x32_wb_wrapper
*CAP
1 wbs_dat_i[7] 0.00123053
2 *646:wbs_dat_i[7] 0.000722887
3 *605:11 0.00348272
4 *605:9 0.00399037
5 *646:wbs_dat_i[7] *635:11 0.000114645
6 *646:wbs_dat_i[7] *636:11 0.000789918
7 *646:wbs_dat_i[7] *637:11 0
8 *605:11 *635:11 2.79482e-05
9 *646:wbs_adr_i[5] *605:9 0
10 *646:wbs_adr_i[6] *605:9 0
11 *646:wbs_adr_i[6] *605:11 0
12 *646:wbs_adr_i[7] *646:wbs_dat_i[7] 0
13 *646:wbs_dat_i[5] *605:9 0.00117705
14 *646:wbs_dat_i[5] *605:11 0.00184472
15 *572:7 *605:9 0
*RES
1 wbs_dat_i[7] *605:9 35.7632 
2 *605:9 *605:11 79.5636 
3 *605:11 *646:wbs_dat_i[7] 22.6726 
*END

*D_NET *606 0.0105408
*CONN
*P wbs_dat_i[8] I
*I *646:wbs_dat_i[8] I *D CF_SRAM_1024x32_wb_wrapper
*CAP
1 wbs_dat_i[8] 0.0016644
2 *646:wbs_dat_i[8] 0.003606
3 *606:9 0.0052704
4 *646:wbs_dat_i[8] *638:5 0
5 *646:wbs_adr_i[8] *646:wbs_dat_i[8] 0
*RES
1 wbs_dat_i[8] *606:9 37.6689 
2 *606:9 *646:wbs_dat_i[8] 83.7168 
*END

*D_NET *607 0.0114141
*CONN
*P wbs_dat_i[9] I
*I *646:wbs_dat_i[9] I *D CF_SRAM_1024x32_wb_wrapper
*CAP
1 wbs_dat_i[9] 0.00105248
2 *646:wbs_dat_i[9] 0.00441426
3 *607:13 0.00546674
4 *646:wbs_dat_i[9] *639:5 0
5 *607:13 wbs_dat_o[9] 7.41419e-05
6 *607:13 *609:13 0.000406489
7 *646:wbs_adr_i[10] *646:wbs_dat_i[9] 0
8 *646:wbs_adr_i[10] *607:13 0
9 *646:wbs_adr_i[9] *646:wbs_dat_i[9] 0
*RES
1 wbs_dat_i[9] *607:13 34.4289 
2 *607:13 *646:wbs_dat_i[9] 102.898 
*END

*D_NET *608 0.0285421
*CONN
*P wbs_dat_o[0] O
*I *646:wbs_dat_o[0] O *D CF_SRAM_1024x32_wb_wrapper
*CAP
1 wbs_dat_o[0] 0.0017908
2 *646:wbs_dat_o[0] 0.00506814
3 *608:9 0.0033522
4 *608:7 0.0015614
5 *608:5 0.00506814
6 wbs_dat_o[0] wbs_dat_o[1] 0.00146779
7 wbs_dat_o[0] *640:15 0.00500706
8 wbs_dat_o[0] *642:21 0.000497207
9 wbs_dat_o[0] *645:17 0.000865634
10 *608:5 *646:wbs_sel_i[0] 0
11 *608:9 *640:17 0.000177504
12 *608:9 *645:19 0
13 *646:wbs_dat_i[0] *608:5 0
14 *565:19 *608:9 0.00127209
15 *568:17 wbs_dat_o[0] 0
16 *568:17 *608:9 0.00140857
17 *587:31 *608:9 0.00095889
18 *598:19 *608:5 4.67107e-05
*RES
1 *646:wbs_dat_o[0] *608:5 115.399 
2 *608:5 *608:7 15 
3 *608:7 *608:9 43.5 
4 *608:9 wbs_dat_o[0] 45.3816 
*END

*D_NET *609 0.0147812
*CONN
*P wbs_dat_o[10] O
*I *646:wbs_dat_o[10] O *D CF_SRAM_1024x32_wb_wrapper
*CAP
1 wbs_dat_o[10] 0.000326379
2 *646:wbs_dat_o[10] 0.00365427
3 *609:13 0.00266316
4 *609:5 0.00599105
5 wbs_dat_o[10] *612:5 0
6 *609:13 wbs_dat_o[11] 0.00079415
7 *646:wbs_adr_i[10] *609:5 0
8 *646:wbs_adr_i[10] *609:13 0
9 *646:wbs_adr_i[11] *609:5 0
10 *646:wbs_adr_i[11] *609:13 0
11 *646:wbs_dat_i[10] *609:5 0
12 *544:13 *609:13 0.000569506
13 *545:11 *609:13 0
14 *580:13 *609:13 0.000376157
15 *607:13 *609:13 0.000406489
*RES
1 *646:wbs_dat_o[10] *609:5 83.7168 
2 *609:5 *609:13 42.8615 
3 *609:13 wbs_dat_o[10] 13.8725 
*END

*D_NET *610 0.0172171
*CONN
*P wbs_dat_o[11] O
*I *646:wbs_dat_o[11] O *D CF_SRAM_1024x32_wb_wrapper
*CAP
1 wbs_dat_o[11] 0.00113392
2 *646:wbs_dat_o[11] 0.00146638
3 *610:9 0.00466848
4 *610:7 0.00500094
5 wbs_dat_o[11] wbs_dat_o[15] 0.000559572
6 wbs_dat_o[11] *615:5 2.75733e-06
7 *610:9 wbs_dat_o[9] 0
8 *646:wbs_adr_i[12] *610:7 0
9 *646:wbs_adr_i[12] *610:9 0
10 *646:wbs_dat_i[11] *610:7 0
11 *646:wbs_dat_i[11] *610:9 0
12 *545:11 wbs_dat_o[11] 5.5403e-05
13 *546:13 wbs_dat_o[11] 0.00309312
14 *580:13 wbs_dat_o[11] 0.000442383
15 *609:13 wbs_dat_o[11] 0.00079415
*RES
1 *646:wbs_dat_o[11] *610:7 34.3132 
2 *610:7 *610:9 81.3243 
3 *610:9 wbs_dat_o[11] 27.0929 
*END

*D_NET *611 0.0213213
*CONN
*P wbs_dat_o[12] O
*I *646:wbs_dat_o[12] O *D CF_SRAM_1024x32_wb_wrapper
*CAP
1 wbs_dat_o[12] 0.00011555
2 *646:wbs_dat_o[12] 0.00999419
3 *611:20 0.0101097
4 *611:20 wbs_dat_o[14] 0.000101859
5 *611:20 wbs_dat_o[18] 5.56761e-05
6 *646:wbs_dat_i[12] *611:20 0.000944275
*RES
1 *646:wbs_dat_o[12] *611:20 48.3229 
2 *611:20 wbs_dat_o[12] 9.97821 
*END

*D_NET *612 0.0184347
*CONN
*P wbs_dat_o[13] O
*I *646:wbs_dat_o[13] O *D CF_SRAM_1024x32_wb_wrapper
*CAP
1 wbs_dat_o[13] 6.68326e-05
2 *646:wbs_dat_o[13] 0.00532668
3 *612:9 0.00280962
4 *612:7 0.00274279
5 *612:5 0.00532668
6 *612:9 wbs_dat_o[14] 0.00156459
7 wbs_dat_o[10] *612:5 0
8 *646:wbs_adr_i[14] *612:5 0
9 *646:wbs_dat_i[13] *612:5 0
10 *577:9 *612:5 0
11 *578:11 *612:9 0.000597481
12 *580:15 *612:5 0
*RES
1 *646:wbs_dat_o[13] *612:5 118.921 
2 *612:5 *612:7 15 
3 *612:7 *612:9 57.7929 
4 *612:9 wbs_dat_o[13] 16.3464 
*END

*D_NET *613 0.0214451
*CONN
*P wbs_dat_o[14] O
*I *646:wbs_dat_o[14] O *D CF_SRAM_1024x32_wb_wrapper
*CAP
1 wbs_dat_o[14] 0.00273538
2 *646:wbs_dat_o[14] 0.00518031
3 *613:5 0.00791569
4 wbs_dat_o[14] wbs_dat_o[17] 8.79222e-05
5 wbs_dat_o[14] wbs_dat_o[18] 0.000718093
6 wbs_dat_o[14] wbs_dat_o[21] 0.000979765
7 *646:wbs_adr_i[14] *613:5 0
8 *646:wbs_adr_i[15] *613:5 0
9 *646:wbs_dat_i[14] *613:5 0
10 *545:11 wbs_dat_o[14] 0.000169384
11 *578:11 wbs_dat_o[14] 0.000740791
12 *579:13 wbs_dat_o[14] 0.00125133
13 *611:20 wbs_dat_o[14] 0.000101859
14 *612:9 wbs_dat_o[14] 0.00156459
*RES
1 *646:wbs_dat_o[14] *613:5 118.393 
2 *613:5 wbs_dat_o[14] 29.8367 
*END

*D_NET *614 0.0278944
*CONN
*P wbs_dat_o[15] O
*I *646:wbs_dat_o[15] O *D CF_SRAM_1024x32_wb_wrapper
*CAP
1 wbs_dat_o[15] 0.00181031
2 *646:wbs_dat_o[15] 0.00497418
3 *614:5 0.00678449
4 wbs_dat_o[15] wbs_dat_o[16] 0.00711346
5 wbs_dat_o[15] wbs_dat_o[19] 0.00499208
6 wbs_dat_o[15] *626:5 0.000105953
7 wbs_dat_o[11] wbs_dat_o[15] 0.000559572
8 *646:wbs_adr_i[15] *614:5 0
9 *646:wbs_adr_i[16] *614:5 0
10 *646:wbs_dat_i[15] *614:5 0
11 *646:wbs_dat_i[16] *614:5 0
12 *546:13 wbs_dat_o[15] 6.00331e-05
13 *580:13 wbs_dat_o[15] 0.00149437
*RES
1 *646:wbs_dat_o[15] *614:5 114.167 
2 *614:5 wbs_dat_o[15] 35.5639 
*END

*D_NET *615 0.0307856
*CONN
*P wbs_dat_o[16] O
*I *646:wbs_dat_o[16] O *D CF_SRAM_1024x32_wb_wrapper
*CAP
1 wbs_dat_o[16] 0.00186687
2 *646:wbs_dat_o[16] 0.00505413
3 *615:5 0.006921
4 wbs_dat_o[16] wbs_dat_o[17] 0.00823254
5 wbs_dat_o[16] wbs_dat_o[19] 0.000988455
6 wbs_dat_o[11] *615:5 2.75733e-06
7 wbs_dat_o[15] wbs_dat_o[16] 0.00711346
8 *646:wbs_adr_i[17] *615:5 0
9 *646:wbs_dat_i[16] *615:5 0
10 *646:wbs_dat_i[17] *615:5 0
11 *546:13 wbs_dat_o[16] 0.000548002
12 *579:13 wbs_dat_o[16] 5.83591e-05
*RES
1 *646:wbs_dat_o[16] *615:5 114.871 
2 *615:5 wbs_dat_o[16] 36.9205 
*END

*D_NET *616 0.0335954
*CONN
*P wbs_dat_o[17] O
*I *646:wbs_dat_o[17] O *D CF_SRAM_1024x32_wb_wrapper
*CAP
1 wbs_dat_o[17] 0.00216252
2 *646:wbs_dat_o[17] 0.00510968
3 *616:5 0.0072722
4 wbs_dat_o[17] wbs_dat_o[18] 0.0092609
5 wbs_dat_o[17] wbs_dat_o[19] 0.000279679
6 wbs_dat_o[14] wbs_dat_o[17] 8.79222e-05
7 wbs_dat_o[16] wbs_dat_o[17] 0.00823254
8 *646:wbs_adr_i[18] *616:5 0
9 *646:wbs_dat_i[17] *616:5 0
10 *646:wbs_dat_i[18] *616:5 0
11 *579:13 wbs_dat_o[17] 0.000220441
12 *599:11 wbs_dat_o[17] 0.000969486
*RES
1 *646:wbs_dat_o[17] *616:5 115.575 
2 *616:5 wbs_dat_o[17] 38.1911 
*END

*D_NET *617 0.035408
*CONN
*P wbs_dat_o[18] O
*I *646:wbs_dat_o[18] O *D CF_SRAM_1024x32_wb_wrapper
*CAP
1 wbs_dat_o[18] 0.00252609
2 *646:wbs_dat_o[18] 0.00517801
3 *617:5 0.00770409
4 wbs_dat_o[18] wbs_dat_o[21] 0.00892143
5 wbs_dat_o[18] *628:13 0.000115009
6 wbs_dat_o[14] wbs_dat_o[18] 0.000718093
7 wbs_dat_o[17] wbs_dat_o[18] 0.0092609
8 *646:wbs_adr_i[19] *617:5 0
9 *646:wbs_dat_i[18] *617:5 0
10 *599:11 wbs_dat_o[18] 0.000928731
11 *611:20 wbs_dat_o[18] 5.56761e-05
*RES
1 *646:wbs_dat_o[18] *617:5 116.28 
2 *617:5 wbs_dat_o[18] 39.9382 
*END

*D_NET *618 0.0308062
*CONN
*P wbs_dat_o[19] O
*I *646:wbs_dat_o[19] O *D CF_SRAM_1024x32_wb_wrapper
*CAP
1 wbs_dat_o[19] 0.00431246
2 *646:wbs_dat_o[19] 0.00504097
3 *618:5 0.00935343
4 wbs_dat_o[19] *628:13 0.000115009
5 wbs_dat_o[15] wbs_dat_o[19] 0.00499208
6 wbs_dat_o[16] wbs_dat_o[19] 0.000988455
7 wbs_dat_o[17] wbs_dat_o[19] 0.000279679
8 *646:wbs_adr_i[19] *618:5 0
9 *646:wbs_adr_i[20] *618:5 0
10 *646:wbs_dat_i[19] *618:5 0
11 *547:13 *618:5 0
12 *553:13 wbs_dat_o[19] 0.00181212
13 *561:13 wbs_dat_o[19] 0
14 *564:21 wbs_dat_o[19] 0.000717371
15 *580:13 wbs_dat_o[19] 0.000824306
16 *599:11 wbs_dat_o[19] 0.00237029
*RES
1 *646:wbs_dat_o[19] *618:5 113.463 
2 *618:5 wbs_dat_o[19] 44.7303 
*END

*D_NET *619 0.0281745
*CONN
*P wbs_dat_o[1] O
*I *646:wbs_dat_o[1] O *D CF_SRAM_1024x32_wb_wrapper
*CAP
1 wbs_dat_o[1] 0.00129806
2 *646:wbs_dat_o[1] 0.00497491
3 *619:9 0.00178694
4 *619:5 0.00546379
5 wbs_dat_o[1] *641:9 0
6 wbs_dat_o[1] *642:21 0.00224661
7 wbs_dat_o[1] *645:17 0.00281874
8 *619:5 wbs_dat_o[5] 0
9 *619:5 *646:wbs_sel_i[1] 0
10 *619:5 *635:13 0
11 *619:9 *640:17 0.00252935
12 *619:9 *642:25 0.00036394
13 wbs_dat_o[0] wbs_dat_o[1] 0.00146779
14 *646:wbs_adr_i[2] *619:5 0
15 *646:wbs_dat_i[1] *619:5 0
16 *565:19 *619:9 0.00012377
17 *568:17 wbs_dat_o[1] 0.00145042
18 *587:31 *619:9 0.00296299
19 *598:19 wbs_dat_o[1] 0.000392238
20 *598:19 *619:9 0.000294952
*RES
1 *646:wbs_dat_o[1] *619:5 114.343 
2 *619:5 *619:9 49.9243 
3 *619:9 wbs_dat_o[1] 45.3809 
*END

*D_NET *620 0.041643
*CONN
*P wbs_dat_o[20] O
*I *646:wbs_dat_o[20] O *D CF_SRAM_1024x32_wb_wrapper
*CAP
1 wbs_dat_o[20] 0.000821183
2 *646:wbs_dat_o[20] 0.00471598
3 *620:11 0.00377056
4 *620:5 0.00766536
5 *646:wbs_adr_i[21] *620:5 0
6 *646:wbs_dat_i[20] *620:5 0
7 *646:wbs_dat_i[21] *620:5 0
8 *547:13 *620:5 0
9 *547:15 *620:5 0
10 *553:13 *620:11 0.000142258
11 *555:11 *620:11 0.0120037
12 *556:9 wbs_dat_o[20] 0
13 *557:11 *620:11 0.012524
14 *595:13 *620:11 0
*RES
1 *646:wbs_dat_o[20] *620:5 106.42 
2 *620:5 *620:11 40.9573 
3 *620:11 wbs_dat_o[20] 13.1432 
*END

*D_NET *621 0.0444902
*CONN
*P wbs_dat_o[21] O
*I *646:wbs_dat_o[21] O *D CF_SRAM_1024x32_wb_wrapper
*CAP
1 wbs_dat_o[21] 0.00395045
2 *646:wbs_dat_o[21] 0.00542609
3 *621:5 0.00937653
4 wbs_dat_o[21] *623:13 0.00176253
5 wbs_dat_o[21] *624:11 0.0121862
6 wbs_dat_o[14] wbs_dat_o[21] 0.000979765
7 wbs_dat_o[18] wbs_dat_o[21] 0.00892143
8 *646:wbs_adr_i[22] *621:5 0
9 *646:wbs_dat_i[21] *621:5 0
10 *599:11 wbs_dat_o[21] 0.00188714
*RES
1 *646:wbs_dat_o[21] *621:5 116.984 
2 *621:5 wbs_dat_o[21] 44.854 
*END

*D_NET *622 0.0417046
*CONN
*P wbs_dat_o[22] O
*I *646:wbs_dat_o[22] O *D CF_SRAM_1024x32_wb_wrapper
*CAP
1 wbs_dat_o[22] 0.000419147
2 *646:wbs_dat_o[22] 0.018128
3 *622:18 0.0185472
4 wbs_dat_o[22] *624:11 0.000226665
5 *646:wbs_adr_i[22] *622:18 0.000245087
6 *646:wbs_dat_i[22] *622:18 0.00119681
7 *564:21 *622:18 0.00287064
8 *599:11 wbs_dat_o[22] 7.1053e-05
*RES
1 *646:wbs_dat_o[22] *622:18 43.2582 
2 *622:18 wbs_dat_o[22] 19.0213 
*END

*D_NET *623 0.0387428
*CONN
*P wbs_dat_o[23] O
*I *646:wbs_dat_o[23] O *D CF_SRAM_1024x32_wb_wrapper
*CAP
1 wbs_dat_o[23] 0.000333822
2 *646:wbs_dat_o[23] 0.00151692
3 *623:13 0.00600446
4 *623:11 0.00567064
5 *623:9 0.00381834
6 *623:7 0.00533526
7 wbs_dat_o[23] *628:13 0.000115009
8 *623:13 *624:11 0.000130199
9 *623:13 *625:9 0.0140557
10 wbs_dat_o[21] *623:13 0.00176253
11 *646:wbs_adr_i[24] *623:7 0
12 *646:wbs_adr_i[24] *623:9 0
13 *646:wbs_dat_i[23] *623:7 0
14 *646:wbs_dat_i[23] *623:9 0
15 *581:9 *623:9 0
*RES
1 *646:wbs_dat_o[23] *623:7 34.3132 
2 *623:7 *623:9 83.2611 
3 *623:9 *623:11 15 
4 *623:11 *623:13 168.324 
5 *623:13 wbs_dat_o[23] 18.0036 
*END

*D_NET *624 0.0581248
*CONN
*P wbs_dat_o[24] O
*I *646:wbs_dat_o[24] O *D CF_SRAM_1024x32_wb_wrapper
*CAP
1 wbs_dat_o[24] 0.000246662
2 *646:wbs_dat_o[24] 0.00538313
3 *624:11 0.00695936
4 *624:5 0.0120958
5 *624:11 *625:9 0.00143844
6 *624:11 *626:9 0.00254193
7 *624:11 *627:9 0.015518
8 wbs_dat_o[21] *624:11 0.0121862
9 wbs_dat_o[22] *624:11 0.000226665
10 *646:wbs_adr_i[24] *624:5 0
11 *646:wbs_adr_i[25] *624:5 0
12 *646:wbs_dat_i[24] *624:5 0
13 *646:wbs_dat_i[25] *624:5 0
14 *549:11 *624:5 0
15 *599:11 *624:11 0.00139833
16 *623:13 *624:11 0.000130199
*RES
1 *646:wbs_dat_o[24] *624:5 117.688 
2 *624:5 *624:11 48.5995 
3 *624:11 wbs_dat_o[24] 1.50179 
*END

*D_NET *625 0.0505532
*CONN
*P wbs_dat_o[25] O
*I *646:wbs_dat_o[25] O *D CF_SRAM_1024x32_wb_wrapper
*CAP
1 wbs_dat_o[25] 0.000261158
2 *646:wbs_dat_o[25] 0.00537362
3 *625:9 0.00370067
4 *625:7 0.00343952
5 *625:5 0.00537362
6 *625:9 *626:9 0.0168021
7 *625:9 *627:9 0.0001084
8 *646:wbs_adr_i[26] *625:5 0
9 *646:wbs_dat_i[25] *625:5 0
10 *549:11 *625:5 0
11 *582:7 *625:5 0
12 *623:13 *625:9 0.0140557
13 *624:11 *625:9 0.00143844
*RES
1 *646:wbs_dat_o[25] *625:5 117.16 
2 *625:5 *625:7 15 
3 *625:7 *625:9 191.669 
4 *625:9 wbs_dat_o[25] 17.175 
*END

*D_NET *626 0.0546504
*CONN
*P wbs_dat_o[26] O
*I *646:wbs_dat_o[26] O *D CF_SRAM_1024x32_wb_wrapper
*CAP
1 wbs_dat_o[26] 0.00020409
2 *646:wbs_dat_o[26] 0.0053773
3 *626:9 0.00342992
4 *626:7 0.00322583
5 *626:5 0.0053773
6 wbs_dat_o[26] *628:13 0.000106579
7 *626:9 *627:9 0.000229759
8 *626:9 *628:13 0.0172497
9 wbs_dat_o[15] *626:5 0.000105953
10 *646:wbs_adr_i[26] *626:5 0
11 *646:wbs_adr_i[27] *626:5 0
12 *646:wbs_dat_i[26] *626:5 0
13 *646:wbs_dat_i[27] *626:5 0
14 *624:11 *626:9 0.00254193
15 *625:9 *626:9 0.0168021
*RES
1 *646:wbs_dat_o[26] *626:5 117.512 
2 *626:5 *626:7 15 
3 *626:7 *626:9 202.627 
4 *626:9 wbs_dat_o[26] 17.2993 
*END

*D_NET *627 0.0618633
*CONN
*P wbs_dat_o[27] O
*I *646:wbs_dat_o[27] O *D CF_SRAM_1024x32_wb_wrapper
*CAP
1 wbs_dat_o[27] 0.000223094
2 *646:wbs_dat_o[27] 0.00528471
3 *627:9 0.00967323
4 *627:5 0.0147348
5 *627:9 *628:13 0.00341946
6 *627:9 *629:13 0.000102241
7 *627:9 *631:9 0.00381413
8 *627:9 *632:13 0.00338347
9 *646:wbs_adr_i[28] *627:5 0
10 *646:wbs_dat_i[27] *627:5 0
11 *550:9 *627:5 0
12 *550:11 *627:5 0
13 *550:19 *627:5 0.000471144
14 *599:11 *627:9 0.000994548
15 *600:11 *627:9 0.00390625
16 *624:11 *627:9 0.015518
17 *625:9 *627:9 0.0001084
18 *626:9 *627:9 0.000229759
*RES
1 *646:wbs_dat_o[27] *627:5 118.393 
2 *627:5 *627:9 46.7819 
3 *627:9 wbs_dat_o[27] 9.87464 
*END

*D_NET *628 0.0624008
*CONN
*P wbs_dat_o[28] O
*I *646:wbs_dat_o[28] O *D CF_SRAM_1024x32_wb_wrapper
*CAP
1 wbs_dat_o[28] 0.000156164
2 *646:wbs_dat_o[28] 0.0030044
3 *628:13 0.00375264
4 *628:11 0.00490975
5 *628:5 0.00431768
6 *628:13 *629:13 0.000182718
7 *628:13 *631:9 0.0193097
8 wbs_dat_o[18] *628:13 0.000115009
9 wbs_dat_o[19] *628:13 0.000115009
10 wbs_dat_o[23] *628:13 0.000115009
11 wbs_dat_o[26] *628:13 0.000106579
12 *646:wbs_dat_i[28] *628:5 0
13 *646:wbs_dat_i[29] *628:5 0
14 *550:9 *628:11 0
15 *550:11 *628:11 0
16 *553:13 *628:13 0.000115009
17 *557:11 *628:13 0.000115009
18 *561:9 *628:13 0.000115009
19 *583:9 *628:11 1.16689e-05
20 *583:11 *628:5 0.00367839
21 *583:11 *628:11 0.00126692
22 *584:11 *628:13 0.000115009
23 *591:7 *628:13 0.000115009
24 *592:9 *628:13 0.000115009
25 *626:9 *628:13 0.0172497
26 *627:9 *628:13 0.00341946
*RES
1 *646:wbs_dat_o[28] *628:5 83.7168 
2 *628:5 *628:11 49.9139 
3 *628:11 *628:13 225.972 
4 *628:13 wbs_dat_o[28] 16.8229 
*END

*D_NET *629 0.0467181
*CONN
*P wbs_dat_o[29] O
*I *646:wbs_dat_o[29] O *D CF_SRAM_1024x32_wb_wrapper
*CAP
1 wbs_dat_o[29] 0.00021244
2 *646:wbs_dat_o[29] 0.0015311
3 *629:13 0.00719351
4 *629:11 0.00698107
5 *629:9 0.00404246
6 *629:7 0.00557356
7 *629:13 *631:9 0.000190108
8 *629:13 *632:13 0.0203933
9 *646:wbs_adr_i[30] *629:7 0
10 *646:wbs_adr_i[30] *629:9 0
11 *646:wbs_dat_i[29] *629:7 0
12 *646:wbs_dat_i[29] *629:9 0
13 *551:9 *629:9 0
14 *564:21 *629:7 0.000216802
15 *600:11 *629:13 9.87624e-05
16 *627:9 *629:13 0.000102241
17 *628:13 *629:13 0.000182718
*RES
1 *646:wbs_dat_o[29] *629:7 34.3132 
2 *629:7 *629:9 85.7261 
3 *629:9 *629:11 15 
4 *629:11 *629:13 236.454 
5 *629:13 wbs_dat_o[29] 16.8229 
*END

*D_NET *630 0.0242684
*CONN
*P wbs_dat_o[2] O
*I *646:wbs_dat_o[2] O *D CF_SRAM_1024x32_wb_wrapper
*CAP
1 wbs_dat_o[2] 0.00171
2 *646:wbs_dat_o[2] 0.00488314
3 *630:9 0.00231002
4 *630:5 0.00548316
5 wbs_dat_o[2] *642:21 0
6 wbs_dat_o[2] *645:17 0
7 wbs_dat_o[2] *645:19 0.000244426
8 *630:5 *646:wbs_sel_i[2] 0
9 *630:9 *640:17 4.33421e-05
10 *630:9 *642:25 0.000366854
11 *630:9 *645:19 0.000229797
12 *646:wbs_dat_i[2] *630:5 0
13 *540:13 wbs_dat_o[2] 0.000590911
14 *575:19 wbs_dat_o[2] 0.000282192
15 *576:17 wbs_dat_o[2] 0.00044567
16 *576:19 wbs_dat_o[2] 0.000731152
17 *576:19 *630:9 0.000662276
18 *587:27 wbs_dat_o[2] 0.000444493
19 *598:19 wbs_dat_o[2] 0.000495283
20 *598:23 *630:9 0.00160017
21 *601:17 wbs_dat_o[2] 0.00234989
22 *601:21 *630:9 0.00138801
23 *602:13 wbs_dat_o[2] 7.57281e-06
*RES
1 *646:wbs_dat_o[2] *630:5 112.934 
2 *630:5 *630:9 43.7307 
3 *630:9 wbs_dat_o[2] 45.9866 
*END

*D_NET *631 0.0651813
*CONN
*P wbs_dat_o[30] O
*I *646:wbs_dat_o[30] O *D CF_SRAM_1024x32_wb_wrapper
*CAP
1 wbs_dat_o[30] 0.000180465
2 *646:wbs_dat_o[30] 0.00444032
3 *631:9 0.00374705
4 *631:7 0.00356659
5 *631:5 0.00444032
6 *646:wbs_adr_i[31] *631:5 0
7 *646:wbs_dat_i[30] *631:5 0
8 *646:wbs_dat_i[31] *631:5 0
9 *551:9 *631:5 0
10 *584:11 *631:5 0
11 *599:15 *631:5 0.00320751
12 *600:11 wbs_dat_o[30] 0.000106579
13 *600:11 *631:9 0.0221786
14 *627:9 *631:9 0.00381413
15 *628:13 *631:9 0.0193097
16 *629:13 *631:9 0.000190108
*RES
1 *646:wbs_dat_o[30] *631:5 118.216 
2 *631:5 *631:7 15 
3 *631:7 *631:9 247.411 
4 *631:9 wbs_dat_o[30] 17.2993 
*END

*D_NET *632 0.0658882
*CONN
*P wbs_dat_o[31] O
*I *646:wbs_dat_o[31] O *D CF_SRAM_1024x32_wb_wrapper
*CAP
1 wbs_dat_o[31] 8.73043e-05
2 *646:wbs_dat_o[31] 7.90936e-05
3 *632:13 0.00379409
4 *632:11 0.00370679
5 *632:9 0.00561134
6 *632:7 0.00569043
7 *646:wbs_dat_i[31] *632:7 0
8 *646:wbs_dat_i[31] *632:9 0
9 *600:11 *632:13 0.0231424
10 *600:15 *632:9 0
11 *627:9 *632:13 0.00338347
12 *629:13 *632:13 0.0203933
*RES
1 *646:wbs_dat_o[31] *632:7 1.86429 
2 *632:7 *632:9 117.585 
3 *632:9 *632:11 15 
4 *632:11 *632:13 259.322 
5 *632:13 wbs_dat_o[31] 16.8229 
*END

*D_NET *633 0.025751
*CONN
*P wbs_dat_o[3] O
*I *646:wbs_dat_o[3] O *D CF_SRAM_1024x32_wb_wrapper
*CAP
1 wbs_dat_o[3] 8.70853e-05
2 *646:wbs_dat_o[3] 0.0108717
3 *633:20 0.0109588
4 *633:20 *635:11 0
5 *633:20 *642:21 0.000145711
6 *646:wbs_adr_i[3] *633:20 0.00153283
7 *646:wbs_dat_i[3] *633:20 0.00119611
8 *565:15 *633:20 8.15458e-05
9 *601:17 wbs_dat_o[3] 0
10 *604:7 *633:20 0.000721564
11 *604:17 *633:20 0.000155648
*RES
1 *646:wbs_dat_o[3] *633:20 49.3221 
2 *633:20 wbs_dat_o[3] 9.87464 
*END

*D_NET *634 0.0206248
*CONN
*P wbs_dat_o[4] O
*I *646:wbs_dat_o[4] O *D CF_SRAM_1024x32_wb_wrapper
*CAP
1 wbs_dat_o[4] 0.000779901
2 *646:wbs_dat_o[4] 0.00150306
3 *634:9 0.00414045
4 *634:7 0.00486361
5 wbs_dat_o[4] *642:21 1.05441e-05
6 *646:wbs_adr_i[4] *634:9 0
7 *646:wbs_adr_i[5] *634:7 0
8 *646:wbs_adr_i[5] *634:9 0
9 *646:wbs_dat_i[4] *634:7 0
10 *646:wbs_dat_i[4] *634:9 0
11 *568:17 wbs_dat_o[4] 0.000716888
12 *569:13 wbs_dat_o[4] 0.003783
13 *570:13 wbs_dat_o[4] 0.00344823
14 *571:11 wbs_dat_o[4] 0.000232827
15 *572:7 *634:9 0
16 *572:17 *634:9 0.00114632
17 *602:13 wbs_dat_o[4] 0
*RES
1 *646:wbs_dat_o[4] *634:7 34.3132 
2 *634:7 *634:9 82.7329 
3 *634:9 wbs_dat_o[4] 27.6028 
*END

*D_NET *635 0.018264
*CONN
*P wbs_dat_o[5] O
*I *646:wbs_dat_o[5] O *D CF_SRAM_1024x32_wb_wrapper
*CAP
1 wbs_dat_o[5] 0.00131721
2 *646:wbs_dat_o[5] 0.0018178
3 *635:13 0.00345209
4 *635:11 0.00395268
5 *635:11 *636:11 0.00054207
6 *646:wbs_adr_i[2] wbs_dat_o[5] 0.000830472
7 *646:wbs_adr_i[2] *635:13 0.00620906
8 *646:wbs_adr_i[6] *635:11 0
9 *646:wbs_dat_i[5] *635:11 0
10 *646:wbs_dat_i[7] *635:11 0.000114645
11 *605:11 *635:11 2.79482e-05
12 *619:5 wbs_dat_o[5] 0
13 *619:5 *635:13 0
14 *633:20 *635:11 0
*RES
1 *646:wbs_dat_o[5] *635:11 26.7257 
2 *635:11 *635:13 78.8593 
3 *635:13 wbs_dat_o[5] 36.2396 
*END

*D_NET *636 0.0181767
*CONN
*P wbs_dat_o[6] O
*I *646:wbs_dat_o[6] O *D CF_SRAM_1024x32_wb_wrapper
*CAP
1 wbs_dat_o[6] 4.49146e-05
2 *646:wbs_dat_o[6] 0.000961028
3 *636:21 0.00147636
4 *636:19 0.00246456
5 *636:15 0.00164227
6 *636:11 0.00157018
7 *636:15 *646:wbs_sel_i[3] 0.000801275
8 *636:19 *646:wbs_sel_i[3] 0
9 *636:21 *646:wbs_sel_i[3] 0.00384156
10 *646:wbs_adr_i[4] *636:15 0.00121691
11 *646:wbs_adr_i[4] *636:19 0.00282566
12 *646:wbs_adr_i[4] *636:21 0
13 *646:wbs_adr_i[7] *636:11 0
14 *646:wbs_dat_i[6] *636:11 0
15 *646:wbs_dat_i[7] *636:11 0.000789918
16 *635:11 *636:11 0.00054207
*RES
1 *646:wbs_dat_o[6] *636:11 23.2563 
2 *636:11 *636:15 30.8643 
3 *636:15 *636:19 37.4514 
4 *636:19 *636:21 49.8179 
5 *636:21 wbs_dat_o[6] 1.02536 
*END

*D_NET *637 0.0112776
*CONN
*P wbs_dat_o[7] O
*I *646:wbs_dat_o[7] O *D CF_SRAM_1024x32_wb_wrapper
*CAP
1 wbs_dat_o[7] 0.00155866
2 *646:wbs_dat_o[7] 0.00115233
3 *637:13 0.00444204
4 *637:11 0.00403571
5 *646:wbs_adr_i[6] wbs_dat_o[7] 0
6 *646:wbs_adr_i[6] *637:13 0
7 *646:wbs_adr_i[7] *637:11 0
8 *646:wbs_adr_i[7] *637:13 0
9 *646:wbs_adr_i[8] *637:11 8.88111e-05
10 *646:wbs_dat_i[7] *637:11 0
*RES
1 *646:wbs_dat_o[7] *637:11 34.577 
2 *637:11 *637:13 66.8864 
3 *637:13 wbs_dat_o[7] 36.2396 
*END

*D_NET *638 0.0103618
*CONN
*P wbs_dat_o[8] O
*I *646:wbs_dat_o[8] O *D CF_SRAM_1024x32_wb_wrapper
*CAP
1 wbs_dat_o[8] 0.000107523
2 *646:wbs_dat_o[8] 0.00507336
3 *638:5 0.00518088
4 *646:wbs_adr_i[9] *638:5 0
5 *646:wbs_dat_i[8] *638:5 0
*RES
1 *646:wbs_dat_o[8] *638:5 117.688 
2 *638:5 wbs_dat_o[8] 2.45464 
*END

*D_NET *639 0.0129189
*CONN
*P wbs_dat_o[9] O
*I *646:wbs_dat_o[9] O *D CF_SRAM_1024x32_wb_wrapper
*CAP
1 wbs_dat_o[9] 0.00143363
2 *646:wbs_dat_o[9] 0.00426858
3 *639:5 0.0057022
4 *646:wbs_adr_i[10] *639:5 0
5 *646:wbs_adr_i[12] wbs_dat_o[9] 0
6 *646:wbs_dat_i[11] wbs_dat_o[9] 0.00144031
7 *646:wbs_dat_i[9] *639:5 0
8 *607:13 wbs_dat_o[9] 7.41419e-05
9 *610:9 wbs_dat_o[9] 0
*RES
1 *646:wbs_dat_o[9] *639:5 99.3768 
2 *639:5 wbs_dat_o[9] 38.2467 
*END

*D_NET *640 0.0292153
*CONN
*P wbs_sel_i[0] I
*I *646:wbs_sel_i[0] I *D CF_SRAM_1024x32_wb_wrapper
*CAP
1 wbs_sel_i[0] 0.00203264
2 *646:wbs_sel_i[0] 0.00496682
3 *640:19 0.00496682
4 *640:17 0.000720211
5 *640:15 0.00275285
6 *640:15 *642:21 0.000229439
7 *640:17 *642:25 0.000743697
8 *640:17 *645:19 0.00165337
9 wbs_dat_o[0] *640:15 0.00500706
10 *646:wbs_adr_i[1] *646:wbs_sel_i[0] 0
11 *646:wbs_dat_i[1] *646:wbs_sel_i[0] 0
12 *565:15 *640:15 0.00249194
13 *568:17 *640:15 7.74116e-05
14 *587:31 *640:17 0.000366346
15 *601:17 *646:wbs_sel_i[0] 1.40826e-05
16 *601:17 *640:17 0.000442438
17 *608:5 *646:wbs_sel_i[0] 0
18 *608:9 *640:17 0.000177504
19 *619:9 *640:17 0.00252935
20 *630:9 *640:17 4.33421e-05
*RES
1 wbs_sel_i[0] *640:15 47.5415 
2 *640:15 *640:17 41.5943 
3 *640:17 *640:19 15 
4 *640:19 *646:wbs_sel_i[0] 113.991 
*END

*D_NET *641 0.0232578
*CONN
*P wbs_sel_i[1] I
*I *646:wbs_sel_i[1] I *D CF_SRAM_1024x32_wb_wrapper
*CAP
1 wbs_sel_i[1] 0.00167067
2 *646:wbs_sel_i[1] 0.00332406
3 *641:11 0.00689856
4 *641:9 0.00524517
5 *646:wbs_sel_i[1] *646:wbs_stb_i 0.00611936
6 wbs_dat_o[1] *641:9 0
7 *646:wbs_adr_i[2] *646:wbs_sel_i[1] 0
8 *619:5 *646:wbs_sel_i[1] 0
*RES
1 wbs_sel_i[1] *641:9 36.9439 
2 *641:9 *641:11 82.3807 
3 *641:11 *646:wbs_sel_i[1] 32.5637 
*END

*D_NET *642 0.0236163
*CONN
*P wbs_sel_i[2] I
*I *646:wbs_sel_i[2] I *D CF_SRAM_1024x32_wb_wrapper
*CAP
1 wbs_sel_i[2] 0.00138096
2 *646:wbs_sel_i[2] 0.00492432
3 *642:25 0.00554267
4 *642:21 0.0019993
5 *642:21 *643:11 0.000262289
6 wbs_dat_o[0] *642:21 0.000497207
7 wbs_dat_o[1] *642:21 0.00224661
8 wbs_dat_o[2] *642:21 0
9 wbs_dat_o[4] *642:21 1.05441e-05
10 *646:wbs_adr_i[3] *646:wbs_sel_i[2] 0
11 *646:wbs_dat_i[2] *646:wbs_sel_i[2] 0
12 *565:15 *642:21 0.000559547
13 *565:19 *642:25 0.000124317
14 *568:17 *642:21 0.00159953
15 *569:13 *642:21 0.000930188
16 *598:19 *642:21 0
17 *598:23 *642:25 0.00160448
18 *601:21 *642:25 8.47188e-05
19 *602:13 *642:21 0
20 *619:9 *642:25 0.00036394
21 *630:5 *646:wbs_sel_i[2] 0
22 *630:9 *642:25 0.000366854
23 *633:20 *642:21 0.000145711
24 *640:15 *642:21 0.000229439
25 *640:17 *642:25 0.000743697
*RES
1 wbs_sel_i[2] *642:21 44.3021 
2 *642:21 *642:25 42.3014 
3 *642:25 *646:wbs_sel_i[2] 113.639 
*END

*D_NET *643 0.0207306
*CONN
*P wbs_sel_i[3] I
*I *646:wbs_sel_i[3] I *D CF_SRAM_1024x32_wb_wrapper
*CAP
1 wbs_sel_i[3] 0.00182904
2 *646:wbs_sel_i[3] 0.00405714
3 *643:11 0.00588619
4 *646:wbs_adr_i[4] *646:wbs_sel_i[3] 0
5 *646:wbs_dat_i[3] *646:wbs_sel_i[3] 0
6 *565:15 *643:11 0.000737315
7 *569:13 *643:11 0.0014591
8 *571:11 *643:11 0.000926628
9 *603:19 *643:11 0.000930104
10 *604:7 *646:wbs_sel_i[3] 0
11 *604:17 *646:wbs_sel_i[3] 0
12 *636:15 *646:wbs_sel_i[3] 0.000801275
13 *636:19 *646:wbs_sel_i[3] 0
14 *636:21 *646:wbs_sel_i[3] 0.00384156
15 *642:21 *643:11 0.000262289
*RES
1 wbs_sel_i[3] *643:11 27.3937 
2 *643:11 *646:wbs_sel_i[3] 118.393 
*END

*D_NET *644 0.0265127
*CONN
*P wbs_stb_i I
*I *646:wbs_stb_i I *D CF_SRAM_1024x32_wb_wrapper
*CAP
1 wbs_stb_i 0.00162184
2 *646:wbs_stb_i 0.00499388
3 *644:11 0.00857482
4 *644:9 0.00520278
5 *646:wbs_stb_i *646:wbs_we_i 0
6 *646:wbs_cyc_i *646:wbs_stb_i 0
7 *646:wbs_sel_i[1] *646:wbs_stb_i 0.00611936
*RES
1 wbs_stb_i *644:9 36.9439 
2 *644:9 *644:11 83.085 
3 *644:11 *646:wbs_stb_i 37.956 
*END

*D_NET *645 0.0323939
*CONN
*P wbs_we_i I
*I *646:wbs_we_i I *D CF_SRAM_1024x32_wb_wrapper
*CAP
1 wbs_we_i 0.00206563
2 *646:wbs_we_i 0.00501373
3 *645:21 0.00501373
4 *645:19 0.000773605
5 *645:17 0.00283924
6 wbs_dat_o[0] *645:17 0.000865634
7 wbs_dat_o[1] *645:17 0.00281874
8 wbs_dat_o[2] *645:17 0
9 wbs_dat_o[2] *645:19 0.000244426
10 *646:wbs_adr_i[0] *646:wbs_we_i 0
11 *646:wbs_cyc_i *646:wbs_we_i 0
12 *646:wbs_dat_i[0] *646:wbs_we_i 0
13 *646:wbs_stb_i *646:wbs_we_i 0
14 *543:9 *645:17 0
15 *575:15 *645:17 0.00600486
16 *575:19 *645:19 0.00327718
17 *576:17 *645:17 4.09006e-05
18 *576:19 *645:19 0.000116151
19 *598:19 *645:17 0.000973234
20 *601:17 *645:19 0.000455514
21 *602:13 *646:wbs_we_i 8.11914e-06
22 *608:9 *645:19 0
23 *630:9 *645:19 0.000229797
24 *640:17 *645:19 0.00165337
*RES
1 wbs_we_i *645:17 49.739 
2 *645:17 *645:19 40.6414 
3 *645:19 *645:21 15 
4 *645:21 *646:wbs_we_i 113.286 
*END
